POSCAR file written by OVITO Pro 3.11.2
1
25.20001289 0.0 0.0
1.7e-15 28.17447093 0.0
1.7e-15 4.5e-15 28.17447093
Li Ti Mn O
648 216 216 1080
Cartesian
0.104184 2.68462 0.935794
2.12144 3.68038 2.51649
4.091 2.08286 3.57768
6.53502 1.11881 1.90785
8.4813 2.82279 0.708279
10.761 3.72937 2.8101
10.5911 0.957653 1.58764
12.8441 1.98797 3.61617
16.9056 2.74007 0.738008
16.6563 1.90019 3.79766
20.8687 1.68244 3.58756
21.0146 2.60295 1.01093
23.1592 1.02566 2.03014
2.00777 6.39546 3.52986
2.29491 7.48244 1.01107
4.21346 5.48612 1.82125
0.146711 5.77004 1.80762
6.15326 7.3075 0.723011
6.10243 6.4867 3.80873
10.5506 6.7026 3.61374
12.6226 5.80582 1.59982
14.9428 6.69915 3.67003
18.9143 7.53721 0.863261
18.8876 6.6084 3.68735
18.7855 4.71672 28.029
23.3075 7.52961 0.852163
0.0305171 11.3434 3.78671
4.3396 11.3134 3.78076
6.38569 10.2385 1.8607
8.4455 8.52325 2.74251
8.38208 11.2557 3.78477
10.5078 10.3751 1.54066
12.5567 12.1041 0.634718
14.8867 10.5022 1.70799
16.8918 11.2478 3.63888
16.6863 8.66913 2.57791
20.9881 11.4092 3.61563
20.8661 8.33686 2.36922
0.181619 8.35848 2.71515
21.3183 9.58069 28.0051
2.38616 13.1164 2.79246
2.15366 14.3116 28.1613
0.165048 15.3242 1.97862
4.13819 15.0604 1.59027
6.31599 14.1349 28.1584
6.25596 16.0132 3.57792
10.3229 13.0869 2.48605
10.5593 15.7704 3.51521
12.7049 15.0873 1.84292
16.9533 14.9571 1.58959
16.9996 12.2772 0.707217
18.8851 13.094 2.59266
22.9416 15.9615 3.69204
2.19468 19.6664 2.01797
6.53524 19.763 1.67152
4.3902 18.7986 28.0991
10.4342 16.8112 0.654147
10.4785 19.8725 1.87925
14.6646 16.8108 0.863411
14.8974 19.6678 1.55364
16.7572 17.9007 2.81118
19.0896 16.9144 0.715595
20.9946 17.9579 2.56494
0.033422 18.0224 2.73763
2.15408 22.6646 2.6673
6.26793 22.6513 2.75703
8.42324 21.7111 0.689194
8.56558 20.7791 3.62002
12.9722 21.4223 0.796531
16.8647 21.4588 0.801583
16.8517 20.48 3.42804
18.8295 22.3914 2.75722
21.0797 20.6788 3.57235
22.9611 22.7191 2.80664
0.0591345 24.5536 1.76582
2.07405 26.2964 1.06546
4.11387 24.2817 1.95509
4.2254 27.3527 2.94865
6.38405 25.3868 3.56753
10.6185 25.378 3.76846
12.7433 24.4947 1.87208
14.9364 25.297 3.92202
16.9425 27.2531 2.68735
18.7321 26.2622 0.716498
18.7629 25.3701 3.254
20.9682 24.4222 1.80635
25.0303 27.0591 2.79086
23.0725 25.5492 3.72688
25.0855 1.03174 6.53357
4.35762 3.87112 7.61146
2.08616 28.0947 4.77528
8.37056 0.968216 6.62089
8.40543 3.87396 7.51546
12.8376 0.837287 6.43124
12.6359 3.94018 7.4627
14.7984 0.0543472 4.83449
16.8552 3.84126 7.44641
18.9553 2.73175 5.18118
18.8676 0.282965 4.51404
22.8541 2.93351 5.53231
25.1507 3.70663 7.28292
0.0381481 4.8415 4.48494
4.04922 7.53022 5.56153
6.35373 5.62662 6.53312
8.52761 4.80259 4.82549
10.551 5.77338 6.55104
14.7241 5.56573 6.65032
19.0738 5.57706 6.54157
20.8057 4.83136 4.51469
20.8959 7.3308 5.36109
23.1174 5.63816 6.63412
2.26444 8.91054 7.41995
25.0765 10.2627 6.3194
4.23724 10.525 6.65558
6.61129 8.61629 7.41614
8.34002 10.5135 6.47722
10.5683 8.22666 7.7129
12.826 10.4957 6.18323
14.7647 8.3058 7.37238
14.985 9.53193 4.80168
16.988 10.3723 6.43253
19.0121 8.6901 7.28008
23.0834 8.69005 7.53184
23.076 9.44585 4.65635
2.28678 15.2248 6.56199
0.148456 14.2802 4.73055
4.28744 13.3662 7.45176
6.64767 12.3149 5.44561
6.30327 14.9655 6.6103
8.57311 13.1563 7.31788
8.48695 14.1078 4.61681
14.838 12.2318 5.48556
12.6217 14.5 4.60545
12.6347 13.0659 7.25822
14.7221 14.906 6.66716
18.9783 12.1097 5.40806
19.0136 15.233 6.51919
20.9941 14.1782 4.89188
23.1235 15.0363 6.67721
2.13277 17.8829 7.14052
2.18489 18.9582 4.88066
4.43832 16.9658 5.52343
4.33573 19.7376 6.56324
24.9359 19.9741 6.45878
6.42915 18.9112 4.63878
10.4659 19.069 4.65108
10.6337 17.9845 7.49347
8.51451 19.8648 6.392
12.62 17.1465 5.46433
12.7315 19.8105 6.5433
15.0613 18.7581 4.3698
16.9661 17.1056 5.60126
19.0246 17.7067 7.38449
20.9956 19.7771 6.47233
22.9617 17.8355 7.52495
23.0292 18.7365 4.59394
4.35003 23.5925 4.77743
25.1085 22.7717 7.7092
4.24831 22.4491 7.2278
8.7178 22.5788 7.40735
10.7437 21.6772 5.56568
12.6791 23.4198 4.62895
12.6581 22.4282 7.57003
17.0297 23.3585 4.72467
16.9595 22.3597 7.68697
18.96 21.6174 5.51539
20.8819 22.4634 7.54554
0.0846355 23.4749 4.50453
2.18848 27.0614 7.52416
6.39749 0.281852 4.73232
6.40036 27.1957 7.45463
8.65047 26.4353 5.35927
10.7991 0.206004 4.62403
15.0433 24.532 6.78733
14.955 27.1495 7.46108
18.9718 27.388 7.60916
23.0585 28.1425 4.64746
20.9093 26.4255 5.51149
2.26099 1.82224 8.38861
0.127976 0.0527138 9.38607
4.1468 0.0577417 9.11947
4.15587 3.04957 10.4932
8.49026 0.122727 9.33016
10.5748 1.02085 11.1106
10.7022 1.81624 8.44108
14.8975 1.03158 11.2261
16.7669 2.65529 10.5346
18.8742 1.89596 8.40312
21.121 0.0942635 9.26766
20.9237 2.88078 10.1824
22.7284 0.910542 11.1743
23.2369 2.06709 8.27954
2.06514 7.73262 10.3218
4.36144 5.68543 11.1219
6.17467 4.76037 9.12506
6.38621 7.4367 10.328
8.50581 5.57727 11.2984
10.5033 7.54673 10.2256
12.5887 5.70413 11.2304
12.761 6.48791 8.57412
14.9236 4.70386 9.52225
18.6542 7.78026 10.2155
21.0684 5.61718 11.0129
0.103084 5.48398 11.4012
25.1374 6.84589 8.31686
23.4024 4.72589 9.29619
2.3724 11.4864 8.32739
6.47623 10.4768 10.9821
8.38235 9.49439 9.15541
8.5966 12.2448 10.0695
10.7893 10.1893 11.2452
14.6894 9.99162 11.0454
16.7274 9.48374 9.0728
18.8322 11.5643 8.25477
23.2035 10.3718 11.1736
23.1097 11.3511 8.359
0.0457547 15.1315 11.4383
4.39616 12.6232 10.1615
4.49824 15.0077 11.21
6.5625 14.054 9.37121
10.64 14.0151 9.31441
16.8969 15.9197 8.21784
12.8183 12.3533 9.90984
12.6391 15.0596 11.0457
14.712 13.3748 11.8176
16.8045 14.8834 11.523
17.0189 12.2257 10.0303
20.9869 15.1531 11.3007
21.1115 12.5689 10.2385
21.0481 15.9044 8.53936
23.0293 14.2488 9.51298
4.17196 18.7217 9.44698
6.71193 16.8904 10.3755
8.56972 18.8583 9.24289
10.5539 17.0406 10.2033
8.28554 17.8847 11.8887
12.6951 18.9922 9.20647
14.6052 19.986 11.2268
18.9773 16.8894 10.3937
19.0569 19.7648 11.3842
0.0168975 18.8692 9.2609
23.0283 19.7322 11.108
25.0031 17.8365 12.2424
2.15873 23.639 9.51958
2.18066 22.8611 12.1807
6.45878 23.3474 9.25129
6.65907 20.7105 8.4135
8.5709 21.7711 10.2292
10.4111 23.5194 9.2258
14.8979 20.7245 8.66769
16.9417 21.3461 10.5942
19.1026 20.6433 8.5372
20.943 21.5146 10.4663
22.9259 23.3741 9.42632
0.136661 24.4024 11.3177
4.69579 25.5415 8.5097
6.49673 26.2426 10.5006
8.41376 27.2296 12.1804
10.6597 26.3981 10.2273
12.3925 24.3589 11.1657
12.5645 25.2921 8.4874
16.9622 25.5487 8.48884
16.8684 24.3816 11.4371
16.9093 28.1093 9.16587
19.0859 26.4351 10.0198
21.0071 27.2507 12.1153
21.1463 25.2323 8.75515
2.06951 3.80759 12.2489
2.13158 2.61101 14.9886
2.15461 28.1301 14.0302
4.34677 1.17191 15.8637
6.43315 2.94232 15.0067
8.49666 0.969204 15.7027
8.37108 1.75698 13.1814
10.434 3.47685 12.2822
12.7991 1.82336 12.9526
14.7368 2.71924 15.3123
16.7261 0.820597 15.8344
14.8267 0.0742128 14.0683
18.9851 3.58223 12.2595
19.2811 2.64491 15.0036
20.7519 1.81756 13.052
24.9759 0.794636 15.6972
22.9648 2.78732 15.0012
1.96291 5.69269 16.0071
25.159 7.63217 14.8922
4.62575 7.48481 15.0209
8.50367 7.46717 15.1399
8.60534 4.48177 13.9183
10.5595 5.53157 15.9051
12.7131 7.38834 14.9623
14.74 6.49492 13.0614
16.7981 7.48913 14.9319
17.0185 4.75894 14.0667
20.989 4.61109 14.1572
23.0817 6.46178 13.2462
23.2138 5.68248 16.0815
24.9778 10.4116 15.9299
4.43659 11.2911 12.7616
6.19885 9.59587 13.9349
4.56613 9.89511 15.8368
10.7623 9.41517 13.9282
12.7668 8.3035 11.9868
12.6873 10.2917 15.8065
16.9693 8.3289 12.1278
18.7756 9.33394 13.8955
20.7987 8.39393 12.2088
23.0581 9.23481 14.0514
2.05281 13.2616 11.985
2.09244 12.2425 14.9014
2.17381 14.8152 16.0138
0.304929 14.1103 14.1593
6.25852 12.2035 14.6858
6.5244 14.8206 15.3335
6.42554 15.777 12.8936
8.73506 13.8119 13.8221
10.7193 12.2808 14.8427
10.3982 14.9447 16.0381
14.7095 12.4408 15.0419
14.8387 15.2688 16.1354
16.5985 13.8949 13.9406
14.5601 15.8781 12.9488
18.8862 12.3007 14.7804
18.9571 15.9677 12.9447
20.9678 13.9331 14.1401
23.2943 12.1771 15.0524
23.3361 14.9819 15.8682
2.28364 18.7668 14.0413
4.35509 16.66 14.985
10.4209 18.7526 14.009
12.4507 19.6357 15.921
12.5481 17.7106 12.1089
12.7722 16.9527 15.019
14.6994 18.6696 13.9892
18.9216 18.5799 14.0205
25.0402 19.5976 15.8894
23.1541 18.8787 14.0619
2.30492 21.155 15.0311
2.26119 24.5664 15.9703
4.32876 20.6805 13.0844
6.34934 21.546 14.9188
8.43722 23.5812 14.2158
10.4099 22.4924 12.1199
8.52655 20.7843 13.0256
14.9133 21.7228 15.014
16.9021 23.3777 14.1313
16.766 20.8301 13.2156
20.9691 20.4609 13.2936
21.1332 23.5314 14.1601
23.1498 21.547 14.9319
0.100191 27.0567 12.2806
25.0735 25.9026 14.917
4.38755 27.3662 12.3506
4.31323 26.5284 14.87
6.50942 25.1696 13.3348
6.2965 24.2553 15.8482
10.415 24.3645 16.1963
8.55647 26.1748 15.0622
12.7038 27.1111 12.3387
12.5644 26.3945 15.1867
14.3949 25.4012 13.3279
14.568 24.1167 15.5545
18.91 28.0663 13.9769
19.0145 24.3632 15.9493
18.9656 25.3253 13.038
23.1801 25.3656 13.0514
22.989 24.2016 15.8674
25.1407 2.91737 19.6897
4.01782 3.90277 16.6835
6.41446 1.86635 17.6259
10.5474 1.89145 18.0724
12.5116 2.76433 19.8147
12.5402 3.86044 17.086
14.5942 1.97142 18.0262
20.8007 2.76439 19.7459
23.1221 1.72925 17.6144
21.1729 27.9749 18.6754
2.17503 4.59568 18.5427
2.13294 7.71866 19.6081
25.1328 6.58904 17.8269
6.0962 4.56721 18.8829
8.51192 6.61573 17.9334
14.9998 7.54233 19.6771
16.8856 6.55319 17.7027
18.9886 4.52858 18.7466
21.2038 6.41098 17.7454
2.40711 11.1979 17.5229
25.1285 9.64557 18.5405
4.26504 9.4063 18.5506
6.49103 8.45452 16.8773
8.50247 9.2032 18.5595
10.5284 11.278 17.7209
12.9989 9.35688 18.8112
14.6765 8.72016 16.892
14.7461 11.47 17.8424
18.7724 8.67204 16.8158
20.9504 9.33724 18.6959
23.1601 11.4174 17.5914
24.9437 12.2081 19.7243
2.34958 13.8657 18.6595
0.28299 15.7053 17.5768
4.25136 12.1971 19.366
4.41572 15.8381 17.5117
8.3311 12.2221 19.6027
8.72312 13.0627 16.5463
14.719 14.3011 18.7715
16.6751 13.2547 17.1
17.135 12.3777 19.8412
16.9599 16.1168 17.7733
21.2225 15.9312 17.73
20.9984 13.3316 16.7403
2.30933 16.883 19.6573
4.28812 18.7466 18.7939
8.70493 19.6347 15.931
6.29432 17.7975 16.737
12.5975 16.0191 17.9202
8.60256 18.7897 18.661
10.163 16.8172 19.6703
10.6099 18.143 16.7315
16.9094 18.9482 18.7488
19.0148 17.7845 16.6791
20.9513 18.8195 18.8374
23.1677 17.5616 16.7526
2.24363 20.3862 17.7822
2.18671 23.2623 18.6976
4.12279 21.5419 19.9304
6.29795 20.7268 18.1526
6.28797 23.3849 18.9643
10.2823 20.6364 17.9229
10.4387 23.2802 18.6783
12.3515 22.6957 17.1335
12.5736 21.6075 19.8419
14.8692 23.6756 18.7582
16.7888 22.8437 16.7124
19.0809 20.6055 17.6137
20.9671 22.22 16.7376
21.3667 21.5183 19.4929
23.0598 20.4121 17.7732
22.7854 23.2263 18.5629
2.23589 25.8708 19.5846
6.45324 26.363 19.6222
10.3991 27.3864 16.7793
12.9628 0.323914 19.0722
14.8086 26.5094 19.6868
19.0174 26.4893 19.6413
19.017 27.0686 16.8868
23.0644 26.2875 19.6746
23.1357 27.1884 16.5452
2.09267 0.691375 20.8235
4.14183 1.8153 22.5936
6.3832 0.812076 20.4597
6.45132 0.10213 23.1878
8.32933 2.00954 22.3889
10.7334 3.74842 21.5179
14.7287 1.06174 20.7009
16.9651 2.95971 19.7831
16.8893 2.04077 22.5013
18.6662 3.75784 21.7002
18.7636 0.106869 23.5369
23.1738 3.85632 21.5358
0.238323 5.64218 20.753
3.87202 5.66812 20.6419
4.27564 4.63011 23.2424
4.0842 7.35614 24.2792
6.05246 6.61643 22.4848
8.35884 5.70071 20.5312
8.6162 4.97785 23.0975
10.3733 6.43847 22.2738
12.5751 5.01744 23.4458
12.7858 5.80086 20.6371
16.7532 4.65043 23.4473
17.084 5.41057 20.5906
18.9903 6.55989 22.702
20.9616 5.41446 20.3926
0.101493 4.71423 23.2525
0.0738202 11.2411 22.479
4.26569 8.42031 21.5479
4.21442 11.4543 22.4959
6.27961 10.3067 20.3561
6.13706 9.74155 22.9988
10.4669 9.31682 23.2368
12.9986 8.51626 21.4835
12.804 11.3145 22.3555
14.9202 9.54139 23.4754
14.931 10.3732 20.5869
16.8561 11.1699 22.3862
19.1683 10.4004 20.5849
19.1693 9.517 23.418
20.869 8.29772 21.481
23.0407 10.2255 20.5484
4.33829 14.1266 23.5456
8.33802 14.2621 23.5406
8.44568 15.0853 20.6781
10.1233 13.3718 21.8364
12.5059 15.2236 20.4866
10.6033 16.046 22.2774
14.7976 15.8182 22.4572
16.9318 13.9926 23.4481
18.9697 13.2975 21.8104
18.9584 16.1797 22.3932
20.8934 14.5069 23.2417
0.192809 14.9369 20.3826
21.308 14.9699 20.4033
23.2071 13.4909 21.3672
23.1586 15.9588 22.7321
1.8813 18.9987 23.4706
4.21926 17.9788 21.3323
6.22951 18.8278 23.3652
8.52599 18.061 21.7531
10.8796 18.7766 23.5485
12.6914 17.7911 21.6705
12.6465 16.9396 24.0839
14.553 19.8769 20.7326
17.0185 16.9091 24.2386
16.8895 17.7859 21.4985
18.629 18.7908 23.3831
0.132601 17.8889 21.7576
23.1617 19.5939 20.538
23.3241 18.6836 23.4568
24.9197 23.3008 23.6013
4.47406 24.0953 20.8318
4.38774 23.4632 23.711
6.28678 22.4237 21.5973
8.48557 20.5776 22.3784
10.6633 22.8889 21.5471
12.8315 23.4353 23.2647
14.8243 22.7056 21.2468
16.7095 20.6986 22.2871
18.8922 22.5794 21.3809
20.827 23.4451 23.3014
25.2035 20.6732 22.6573
2.0351 28.1217 23.3765
24.9942 27.071 21.3912
0.134346 24.5864 20.629
10.7022 0.10553 23.313
8.58371 24.5756 20.7213
8.2913 27.2996 21.459
10.6548 25.4259 22.596
12.5984 27.4229 21.5105
14.9503 0.18562 23.309
17.026 27.2645 21.5906
16.9755 24.5917 20.4583
18.9166 25.2507 22.0603
20.9725 26.9503 21.3624
23.0269 28.1223 23.3777
20.7823 24.3297 20.6623
2.06622 2.08786 27.1768
2.11541 2.87186 24.3981
4.45628 3.85471 26.0214
8.35371 3.63815 26.0575
10.5298 1.83818 27.112
12.6616 0.183504 28.0297
12.3835 1.13262 25.1748
14.4867 2.79238 24.5312
14.5949 1.99462 26.9569
18.9259 2.97798 24.3058
18.9042 2.01161 27.0587
21.0699 0.0990985 28.0552
21.1269 0.752584 25.4836
23.2902 3.08793 24.4634
0.145336 3.8668 26.2506
0.211146 7.6563 24.2469
6.67392 4.76648 27.9769
4.0056 6.45825 27.2828
8.41779 6.39978 27.0784
8.394 7.34209 24.2989
12.5632 3.98094 26.1229
12.6059 6.60456 26.9923
14.4564 4.84893 27.9766
14.6381 5.59713 25.2793
16.8625 6.73231 27.1262
19.0731 5.44295 25.1825
23.3317 4.89658 28.0274
20.9468 7.75105 24.1547
23.1375 5.98386 25.3313
2.32054 8.47161 26.3227
2.09215 11.3018 27.2393
0.224446 10.366 25.3538
6.21443 11.4125 27.1438
10.4546 11.4229 26.8028
10.5646 8.43896 26.0849
12.5533 9.50823 27.7118
14.679 8.37364 26.1286
16.8239 9.47121 27.6251
14.5146 12.3164 24.2854
16.7991 10.2777 25.3031
18.7327 11.2913 27.0537
20.9319 10.513 25.6045
23.13 8.74437 26.284
23.1976 11.3911 27.2432
2.13259 12.4824 24.395
2.23342 15.059 25.362
6.23146 12.3833 24.415
8.24138 13.1303 25.9868
10.5425 12.2887 24.2777
12.717 15.8207 27.1503
12.6737 13.0958 26.1514
14.6037 14.9442 24.988
16.649 13.0906 26.1123
18.9002 13.8852 27.8848
23.3821 14.2062 28.0654
23.0979 15.1439 25.5632
2.03826 18.0139 26.3475
4.35824 15.8067 27.3315
6.48461 18.2243 26.2197
8.4162 16.0162 27.0487
8.49842 18.8842 27.9958
10.5656 17.788 26.3807
12.7708 19.5783 25.3588
16.6025 19.6924 25.2915
19.0415 17.8631 25.9892
20.9211 19.8748 25.3018
21.0856 18.6713 27.7295
20.8495 16.1723 27.1467
0.0981524 19.0504 28.1038
22.9805 18.04 26.1228
2.19228 20.7476 27.1211
2.05238 21.525 24.4177
25.0788 22.6549 26.1951
4.12554 22.646 26.0912
6.21666 21.597 24.6843
6.22086 20.5239 27.1101
8.24323 22.6649 26.0083
10.5311 21.7124 24.5065
10.5245 23.4654 28.0397
14.8772 21.5035 24.1251
14.919 20.4578 26.7561
16.8813 22.3299 26.1356
20.9834 22.5758 26.2507
22.8527 23.5552 28.0692
22.8118 20.7695 27.0271
23.1304 21.6189 24.5159
2.12954 27.1288 26.24
6.48372 24.4468 25.1462
6.48072 26.9832 26.1709
8.49496 26.3241 24.1722
8.32522 28.1079 27.9737
8.23919 25.0714 26.9719
16.6304 0.274051 27.8308
12.4419 26.5595 23.975
14.8317 24.5203 24.9992
12.6713 25.2367 26.9573
16.9664 25.0875 26.8325
18.7447 24.4697 25.135
24.9547 25.0257 27.1036
20.7921 25.3732 27.0354
24.9783 26.4213 24.2282
22.9295 27.2341 26.2299
8.71043 1.86038 3.59713
12.6337 2.79669 0.457175
18.711 0.915787 1.77061
0.0326056 1.81469 3.83449
23.4194 3.70834 2.58258
8.43978 5.72416 1.98773
14.6725 7.71846 0.642828
23.0177 6.49327 3.68262
25.1869 9.43002 28.1626
12.7428 11.5475 3.59868
12.6648 8.54846 2.6419
18.8015 10.4407 1.58325
23.0791 10.1787 2.00917
2.11391 16.1578 3.75798
0.0918455 12.4138 1.00321
6.45399 13.0684 2.70447
19.0408 15.9496 3.67757
2.31941 17.0367 0.829538
6.36727 16.9001 0.663417
8.44627 17.9809 2.64226
12.4469 17.9839 2.86092
14.7861 16.2059 3.78024
23.1375 16.8697 0.757066
23.023 19.7013 1.77239
25.0379 21.6694 0.723688
0.0175561 20.8129 3.59274
14.7539 26.3265 0.64929
20.912 27.2305 2.77539
22.9365 26.0767 0.855458
10.6124 2.97098 5.80207
20.9401 1.01032 6.55712
21.1326 3.85491 7.41357
2.05956 5.93818 6.56677
8.30746 7.48418 5.60288
12.7369 4.89615 4.58457
16.845 7.69466 5.44657
25.0688 7.67812 5.44989
19.1378 9.46069 4.51157
21.0174 10.4368 6.38553
10.549 15.1254 6.40837
16.7685 14.1622 4.42373
16.8319 13.2598 7.20743
6.34157 18.0581 7.32285
16.9238 19.9038 6.40073
19.0663 18.9143 4.61742
25.119 17.1783 5.56595
6.46028 21.594 5.51959
14.6631 21.727 5.73456
21.0511 23.4037 4.42613
4.49769 26.3858 5.57511
10.7569 24.479 6.57449
10.5936 27.3933 7.39579
12.9095 26.1145 5.52525
17.1265 26.2578 5.54852
19.0872 24.3959 6.59959
23.151 27.4688 7.44868
8.50629 2.79204 10.2561
18.9532 0.883654 10.9936
25.145 2.74403 10.1682
2.14338 4.74241 9.49037
8.43982 6.59881 8.55754
16.9766 6.6893 8.25513
23.0526 7.34058 10.3651
4.42844 9.55763 9.29656
6.48983 11.5209 8.18219
8.58959 8.47122 12.0571
12.6072 9.32418 9.29192
14.806 11.1971 8.17943
4.43601 15.9525 8.29308
12.6471 15.9246 8.34725
18.917 14.3042 9.27266
6.61268 19.753 10.9485
14.7603 17.0894 10.3269
20.8857 18.7882 9.23459
10.5116 20.6113 8.29228
14.7763 23.5542 9.27809
18.7377 23.4326 9.41417
0.045355 21.7692 10.271
2.39202 26.3999 10.3103
8.4205 25.4997 8.5004
12.825 0.0315698 9.38685
20.9833 24.521 11.2471
16.8894 27.1933 12.1395
6.54185 28.0833 13.9598
12.6668 0.999231 16.0897
16.8096 2.01803 13.3183
22.8289 3.69605 12.1476
19.0478 6.60632 13.0495
2.2875 9.40069 14.0667
8.6347 10.4079 15.7265
16.543 10.4552 15.904
16.8007 11.3533 12.9359
21.0474 10.5508 15.8792
4.1662 13.8112 13.6928
10.726 13.0577 11.9808
12.7574 14.1669 14.1132
23.1555 13.2407 12.1965
6.49338 18.6897 14.0127
10.6159 16.0477 12.9478
16.8973 17.9808 12.1418
16.7853 16.7821 14.8379
21.2161 19.6444 16.0066
0.192201 20.5473 13.2666
10.4786 21.569 15.1778
12.5947 20.4566 13.2494
14.8105 22.5739 12.244
18.9716 21.5501 15.0314
23.0538 22.4916 12.2684
10.6561 0.00696628 13.9546
10.4588 25.3291 13.1909
16.8013 26.1052 14.8926
20.7889 26.1639 14.837
23.0903 28.0601 13.8593
2.09377 1.92471 17.6836
25.1416 3.65505 16.7908
8.41175 3.79271 16.9293
16.8102 0.0641799 18.8626
18.8774 1.74801 17.8272
4.25429 6.50941 17.8223
14.8584 4.64563 18.7489
19.1146 7.29947 19.6345
6.3866 11.1276 17.5998
10.6906 8.442 16.6536
16.8293 9.40984 18.6647
23.2174 8.53841 16.8774
4.34415 13.17 16.6275
0.189033 12.9856 16.8212
10.3843 14.1585 18.7706
8.45959 16.1981 17.6421
12.6314 12.1062 19.5387
12.737 13.3549 16.8257
21.1555 12.2252 19.831
23.1653 14.0912 18.4246
2.28998 17.5069 16.7687
6.29086 17.0674 19.6418
12.5263 18.7161 18.8747
14.7232 17.8457 16.865
19.0177 17.1042 19.3818
23.3936 16.8262 19.6717
4.05855 22.3332 16.8743
8.15514 22.3719 16.966
14.5666 21.0536 17.8091
18.9995 23.587 18.5801
25.1653 22.3912 16.9993
25.1742 27.9647 18.6672
6.319 27.1475 16.6932
4.2302 25.1097 17.943
12.6054 25.3728 17.8373
21.2656 25.3249 17.7275
6.20627 3.93134 21.4763
12.8047 1.89068 22.6488
14.8517 3.93707 21.6518
19.094 0.826293 20.8191
14.7966 6.73543 22.571
21.0873 4.70943 23.2093
2.3915 10.3283 20.2872
2.25561 9.4074 23.393
0.0152573 8.59185 21.2103
8.49944 11.359 22.3831
8.2699 8.33055 21.6009
16.9706 8.59199 21.5525
23.1429 9.43895 23.6107
2.09293 13.0311 21.4951
12.5114 14.2906 23.141
14.7556 13.0598 21.5589
17.0066 15.1373 20.7078
10.4661 19.5769 20.8626
8.62069 17.016 24.3054
14.9633 18.642 23.3867
18.7957 19.8668 20.4848
4.24454 20.7694 22.5964
8.5341 23.2287 23.3983
12.6579 20.7778 22.6869
16.6405 23.4402 23.1357
21.0867 20.6629 22.5795
23.1845 22.5294 21.5253
6.49085 25.2778 22.3268
14.6572 25.5224 22.2294
20.9363 26.3224 24.167
23.2026 25.4047 22.3243
8.5352 0.762818 24.9837
16.6573 3.92295 26.1768
16.8389 1.05049 25.1938
21.1065 3.8035 26.1962
0.189366 1.04179 25.2537
23.2526 1.89848 27.2005
2.06276 4.85322 0.132469
2.18674 5.44216 25.3755
12.489 7.61889 24.297
16.9523 7.53991 24.4117
21.2122 6.73376 27.1824
6.32353 8.31217 26.1045
12.414 10.4619 25.0952
14.7228 11.3037 26.9303
19.0658 8.45425 26.1792
18.8076 12.0779 24.447
10.616 14.0652 28.0874
10.5804 14.9669 25.3784
17.0099 15.8405 27.1331
18.8584 15.0264 25.1023
4.06558 17.0467 24.3699
4.11523 19.8184 25.3972
8.4186 19.7693 25.356
12.6067 18.5839 28.0739
24.94 19.8973 25.4233
6.48621 23.2982 27.9947
10.5186 20.649 27.3456
12.6401 22.5111 26.2386
18.979 20.5425 27.0191
4.38659 26.2259 24.4019
10.6494 27.3181 26.3131
10.481 24.5106 25.1873
14.5139 27.2386 25.9981
18.9192 27.2608 26.409
25.1891 27.9452 28.0917
23.004 24.3038 25.2385
2.09264 0.915408 1.90906
4.31202 2.91353 0.726023
6.41398 3.81357 2.7185
14.8588 0.924434 1.63235
14.748 3.78471 2.49078
18.9065 3.76686 2.50746
10.4621 7.49416 0.89537
16.8027 5.67769 1.5834
21.0811 5.63382 1.7222
2.18328 10.3546 1.85824
4.34334 8.47398 2.81306
4.3176 12.1553 0.812666
8.45948 15.0032 1.83093
8.50148 12.1068 0.652629
14.7085 13.2416 2.62163
20.9311 15.0787 1.6521
21.0818 12.3307 0.727659
23.1576 13.3507 2.78351
4.41695 18.0073 2.99503
18.8538 19.6881 1.75927
1.96226 23.5396 0.0433907
4.30706 20.7898 3.67554
4.20535 21.6229 0.82581
10.6517 22.5789 2.678
12.6297 20.7389 3.68788
14.8935 22.4638 2.73517
21.0273 21.6603 0.94479
2.14001 25.2691 3.68909
4.16189 -0.00398657 28.081
6.25834 26.2754 0.939123
8.45423 27.2667 2.78378
8.50689 24.4092 1.76594
10.6432 26.2257 0.707868
12.6901 27.3244 2.7238
16.7841 24.4765 1.73294
2.17647 2.90227 5.52443
4.1812 1.05805 6.39235
6.32205 2.98384 5.5045
14.8374 2.89169 5.52438
17.0021 0.836355 6.5211
4.10163 4.90537 4.58499
12.5572 7.61908 5.78003
16.9453 4.73287 4.57812
2.18767 9.49072 4.65875
6.34919 9.5413 4.69616
10.4887 9.53583 4.64246
2.24728 12.4187 5.55681
4.30345 14.2118 4.56572
10.5028 12.2717 5.47671
21.1254 13.2888 7.41361
23.2329 12.2423 5.41121
0.0368097 13.2166 7.34344
8.47957 16.9054 5.52234
14.8503 17.9034 7.29171
21.1824 17.0266 5.67789
2.14811 21.7084 5.40161
8.52047 23.4846 4.68939
23.1091 21.669 5.57469
2.16426 24.456 6.58291
0.112327 26.3944 5.6449
6.47008 24.3771 6.4649
22.9983 24.5126 6.73965
2.16615 0.940327 11.3709
6.2435 1.96263 8.3577
6.29932 0.934362 11.1225
12.756 2.83281 10.1561
14.9572 1.9204 8.31265
4.21137 6.63864 8.45024
10.5666 4.8019 9.43318
14.8197 7.5479 10.135
16.8892 5.71498 11.2519
18.9628 4.64679 9.43151
20.9898 6.67988 8.34037
2.20255 10.528 11.0294
10.5919 11.341 8.34627
18.9244 10.4372 11.1465
21.0601 9.60849 9.32229
25.2192 9.42102 9.09466
2.15818 14.163 9.27959
8.36807 16.0268 8.44686
8.58378 15.0127 11.0306
14.8874 14.1658 9.2888
25.1366 12.298 10.2405
2.15152 16.9781 10.1837
2.0979 19.7353 11.1412
10.5275 19.7134 11.2169
16.9828 18.8098 9.21924
25.0335 16.1688 8.37246
23.0243 16.882 10.2539
2.14982 20.7512 8.31106
4.31449 21.6198 10.1948
12.5619 21.7779 10.2262
22.9981 20.6932 8.45061
0.20869 25.4665 8.58566
4.34189 24.3599 11.1688
8.40605 24.4047 11.2347
14.7997 26.2958 10.383
23.1809 26.3302 10.3399
4.15243 1.9338 13.2058
6.35916 3.75527 12.0941
10.4876 2.79507 14.938
14.7338 3.72341 12.1746
25.135 1.87647 13.1609
21.0544 0.941616 15.912
2.00621 6.4783 13.0564
4.22677 4.68909 14.1003
6.51697 6.52702 13.1576
6.52918 5.58029 15.9839
10.6177 6.5861 12.9424
12.7033 4.64055 14.1763
14.8315 5.85631 15.913
18.949 5.79206 15.968
21.0309 7.54116 14.9674
25.1382 4.65139 14.0851
0.230446 11.336 13.1382
4.36075 8.38058 12.0781
8.53909 11.2058 13.0136
12.8349 11.14 12.9863
14.7915 9.18896 13.8898
25.1501 8.2857 12.1004
21.1397 11.2189 13.0303
2.2871 15.9985 13.1071
6.44172 13.1459 11.9994
18.9852 13.2671 12.1419
18.9601 15.0018 15.7694
23.2894 15.9195 13.1856
0.116412 16.8164 14.9732
4.28399 19.4867 15.9033
4.44534 17.7736 12.0351
8.54708 16.881 14.851
16.8685 19.7769 16.0297
20.969 17.8804 12.2224
21.119 16.9103 14.9943
0.140747 23.4519 14.0409
6.46403 22.5604 12.2634
4.31142 23.4076 14.0812
12.5639 23.4836 14.1221
18.9515 22.4757 12.2677
2.19837 25.3064 13.098
4.0872 2.89846 19.5553
8.40701 2.81412 19.7321
8.41953 28.1628 18.6808
16.8329 3.74971 16.8104
21.0942 3.8445 16.8215
6.26949 7.48983 19.7116
10.627 4.62567 18.752
10.538 7.43275 19.6353
12.8132 6.58955 17.8833
23.1358 4.46757 18.7784
23.1374 7.50735 19.5828
2.2152 8.4323 16.7948
19.0001 11.4147 17.6951
6.37315 13.9983 18.4906
19.0611 14.1826 18.7407
0.183963 18.7111 18.6009
14.7954 17.0104 19.8345
0.0908572 21.4924 19.7165
8.48223 21.5667 19.8292
16.7216 21.6619 19.6481
2.21805 27.1617 16.6185
25.0841 25.2536 17.7695
4.05307 28.1114 18.7672
8.35642 25.1904 17.9489
10.5486 26.3186 19.6433
14.6514 27.187 16.8669
16.834 25.4015 17.7602
2.08465 3.65622 21.5215
0.0336567 1.85409 22.5666
10.4994 0.906077 20.7089
21.2519 1.84553 22.678
23.1111 0.947132 20.4716
2.17731 6.52372 22.4275
23.1874 6.50679 22.4658
10.5696 10.3375 20.4385
21.1598 11.3678 22.5079
0.0780534 14.2235 23.2613
4.23656 14.9477 20.5387
6.36545 13.202 21.6107
6.32789 16.0859 22.5045
2.18341 16.1553 22.332
2.11312 19.6417 20.6669
6.46708 19.7392 20.643
21.2007 17.881 21.531
2.07355 22.6281 21.7383
2.01023 25.3716 22.4786
4.29488 27.2017 21.5265
12.6338 24.3398 20.5735
4.12396 0.904426 25.1898
6.26515 2.79282 24.2874
6.51133 1.81089 27.1652
10.5223 2.90451 24.2783
0.124262 6.78424 27.1649
6.3669 5.58793 25.1751
10.3902 5.66863 25.1602
10.5425 4.66881 28.0139
4.35713 9.34975 0.0656787
4.20742 10.4242 25.159
8.5072 10.4318 25.1466
8.39713 9.45375 28.0226
0.221929 13.2812 26.179
4.10572 13.3412 26.0907
6.27662 15.1506 25.2645
14.5385 14.0836 27.9641
23.2716 12.3266 24.2604
21.1664 13.2045 26.1716
0.224461 16.0447 27.3408
14.6386 17.6643 26.1553
16.7909 18.6326 28.0691
21.1162 16.9532 24.3015
0.119623 17.0321 24.515
14.9026 23.3115 27.8621
18.7829 21.6381 24.207
18.8078 23.51 28.0424
1.97478 24.446 25.2949
4.20729 25.2009 27.1575
16.8148 26.2703 24.237
2.08238 3.01787 0.777051
1.97338 1.91284 3.55815
4.0158 1.16234 1.69372
0.151422 0.845273 1.86479
4.3659 3.706 2.60492
6.4523 2.83916 0.706258
6.65999 2.16318 3.68036
8.42799 3.86316 2.7692
8.64609 0.910673 1.90395
10.7072 2.90589 0.819013
10.5509 1.99091 3.79291
12.9067 1.15137 1.61624
14.5722 2.66064 0.813956
14.7781 2.02657 3.78109
16.7473 3.89457 2.3749
12.8774 4.02433 2.72565
16.8044 0.999002 1.67688
18.8892 2.65175 0.82527
18.8539 1.89967 3.37273
20.8194 0.700427 1.80193
0.0273889 3.63041 2.71597
21.0781 3.98902 2.55612
23.3034 2.82766 0.848036
23.1318 2.10352 3.63305
2.0906 5.61211 1.76432
25.1403 7.72055 0.85319
4.17302 6.59333 3.71893
4.28742 7.72953 0.954628
6.52422 5.60294 1.91313
8.53453 6.46 3.76488
8.51351 7.46201 1.09096
10.5263 5.73393 1.89468
8.62067 4.7141 0.242184
12.5124 7.61801 0.926099
14.8517 5.73216 1.61763
16.6171 7.51502 0.927611
12.7854 6.67429 3.93237
16.8567 6.52749 3.77139
18.7486 5.50606 1.57838
21.0332 7.4076 0.709745
25.169 6.66978 3.77031
21.0913 6.66386 3.41886
23.2416 5.67578 1.80825
2.30029 8.5965 2.85991
2.18471 11.1815 3.58276
1.96631 9.60122 0.0355975
4.33187 10.3506 1.76779
6.24416 8.57278 2.955
6.50283 11.4358 3.63933
8.39118 10.4957 1.5793
10.6855 8.57565 2.77227
10.6127 11.398 3.86103
12.5738 10.3292 2.04508
14.5216 8.52909 2.5406
14.5866 11.5581 3.61337
17.0457 10.3863 1.70466
18.9935 8.75012 2.67797
18.9602 11.1821 3.60813
18.8916 12.2108 0.869707
25.1632 10.425 1.78428
21.1963 10.5709 1.77173
23.0964 8.57189 2.76773
23.1415 11.2285 3.62773
23.2662 9.66976 0.0826598
2.04466 12.1033 1.03194
2.07909 15.259 1.88031
4.24849 16.0439 3.81421
0.227853 16.0165 3.89412
25.1837 13.2989 2.70415
0.145729 13.9155 28.0414
4.47096 13.0595 2.53022
6.45915 12.3623 0.929122
6.52719 15.0203 1.89175
8.3659 13.3039 2.67348
8.5872 16.0123 3.48953
10.4922 12.2481 0.653915
10.4783 14.9672 1.63864
8.5204 14.1111 0.0395885
14.8096 12.2218 0.718251
12.653 13.1316 2.77109
16.6788 13.3286 2.8516
14.6549 14.8584 1.72484
16.7807 16.0075 3.73578
19.0217 15.2818 1.87304
20.8367 15.9251 3.69226
23.2462 12.4735 1.06569
21.0332 13.2608 2.39462
22.9496 15.3067 1.91974
2.29292 17.7548 2.74669
2.22682 18.7034 0.17711
4.33909 19.8137 1.96404
4.30811 16.9136 0.937711
6.46798 17.8419 2.55846
8.40469 16.8126 0.932727
8.4772 19.561 1.81092
10.5736 17.8552 2.72343
12.8031 16.2041 3.73235
12.5789 17.0666 0.911101
12.7801 19.4828 1.66755
14.7848 17.7203 2.83164
16.798 16.8122 0.620886
16.837 19.5432 1.66863
18.9573 17.867 2.85728
21.1487 19.9495 1.79993
0.23404 16.9235 0.878703
25.0361 19.8302 1.84981
21.1902 16.8285 0.727741
23.1887 17.9522 2.39459
23.0298 18.7535 28.1483
1.9933 21.8373 0.80163
1.94259 20.7149 3.65239
25.1233 22.3468 2.61059
4.18164 22.4305 2.62269
6.45995 20.8135 3.85306
6.29232 21.7437 0.805954
4.37988 23.4108 0.0690516
8.36866 23.6097 28.0206
8.64273 22.6896 2.84455
10.6805 20.8608 3.66287
10.4858 21.5878 0.819611
12.6113 22.6336 2.82411
14.5357 20.736 3.76439
14.8749 21.5928 1.13228
16.8821 22.7148 2.66087
18.923 20.4774 3.52263
18.9589 21.4076 0.883812
20.8225 23.4095 0.102669
20.8397 22.5615 2.78415
23.2284 20.4945 3.60386
23.0859 21.5296 0.881083
2.05575 24.4028 1.76589
2.17634 27.1144 2.91629
4.08594 25.4859 3.97935
2.04708 28.1421 0.238192
4.22791 26.168 0.483626
6.59555 24.5278 1.82617
6.32365 27.1785 2.58728
6.13974 28.0127 28.1059
8.68706 26.2862 0.954333
8.59525 25.6176 3.61332
10.4692 24.3763 1.80267
10.87 27.3203 2.53043
12.8061 26.31 0.86575
14.7402 24.3629 1.49384
14.721 27.2737 2.48037
16.625 26.1866 1.00983
16.8802 25.4575 3.94194
12.7476 25.2633 3.88177
18.7325 24.2795 1.60926
18.8601 27.335 2.64573
20.9251 25.4482 3.67131
0.0793456 25.424 3.83629
21.0847 26.264 0.974205
23.0518 24.5235 1.78456
22.7869 27.1556 2.72978
24.9686 26.3429 0.865453
2.21289 1.23792 6.32363
0.13562 2.74506 5.37533
4.0754 3.19166 5.50684
25.1573 0.18858 4.60293
6.21072 3.77105 7.33168
6.20873 1.20285 6.40907
8.54003 0.227219 4.50948
8.76869 2.76794 5.51319
10.5284 3.78372 7.44817
10.6618 1.03412 6.61723
12.5942 2.91205 5.57464
14.7576 3.66832 7.40789
14.8682 1.18365 6.51572
16.8938 3.00333 5.47769
19.0798 3.90185 7.77558
19.0283 0.969901 6.47295
20.9124 2.90651 5.76685
23.0232 3.8457 7.47908
23.0461 0.953053 6.46714
21.1991 1.89659 8.26389
2.02651 4.15604 7.39119
2.13348 4.70576 4.66979
1.9554 7.7725 5.76617
0.146997 5.96553 6.42623
4.11181 5.94167 6.64436
6.05923 4.77361 4.68529
6.55227 7.72177 5.73464
8.45968 5.82228 6.50135
10.8259 4.54409 4.67406
10.4049 7.73741 5.41186
12.6663 5.71775 6.32943
14.7869 4.75065 4.70636
14.9869 7.71477 5.5923
17.1168 5.74378 6.57101
18.9057 4.64586 4.29825
18.9524 7.74152 5.35693
20.9564 5.69988 6.57094
23.2382 4.82414 4.30809
23.1608 7.5128 5.30917
2.25952 10.6124 6.25156
4.20114 8.47611 7.65122
4.40649 9.44942 4.58136
6.22974 10.3923 6.72703
8.33055 9.41458 4.80607
8.53625 8.32444 7.45113
10.6787 10.4531 6.3045
12.696 9.31962 4.5259
12.6935 8.29874 7.46444
14.7817 10.5888 6.48806
16.9495 9.38755 4.58457
16.9102 8.3105 7.26847
19.0199 10.3964 6.24633
21.0107 9.53608 4.73391
21.129 8.79758 7.47519
0.0403562 9.33049 4.57281
25.0461 8.60982 7.24928
23.1054 10.5403 6.388
2.0229 13.2968 7.52678
2.40868 14.2492 4.68745
0.27105 12.4205 5.58515
4.35798 15.2357 6.66018
4.15381 12.4506 5.54363
6.57145 13.1762 7.45633
6.27751 14.1405 4.4514
8.41804 15.3327 6.56257
8.60475 12.3149 5.43268
10.4786 13.2268 7.18861
10.5063 14.1465 4.84103
12.5058 15.1524 6.5522
12.4915 12.2221 5.43549
14.8094 13.1544 7.47478
14.7268 14.3271 4.47202
16.7295 15.0035 6.39097
16.8623 12.4711 5.52631
18.7297 13.4584 7.4968
18.7428 14.2691 4.38412
0.0796377 15.2149 6.61343
20.9938 15.12 6.54414
21.0427 12.2343 5.74674
23.3461 13.1113 7.18809
23.0655 14.0043 4.58721
1.89735 16.9425 5.51313
1.91311 20.1018 6.50518
0.0919798 18.8265 4.60569
4.49382 19.0762 4.67856
4.4869 17.8151 7.58722
6.47112 17.0963 5.68459
6.46972 19.8035 6.51275
8.21497 17.8144 7.54382
8.52076 18.5932 4.49052
10.4851 16.7956 5.57735
10.6096 19.8637 6.63286
12.6768 18.8805 4.46241
12.9539 17.7533 7.43096
14.8716 17.1427 5.42475
15.0228 19.8681 6.4952
16.7561 17.8664 7.34668
17.0228 18.9637 4.71303
19.0018 17.0608 5.44274
18.9642 19.7625 6.35098
20.9072 18.9847 4.58499
21.0211 17.9101 7.62562
0.0143365 17.8668 7.33047
23.2356 16.8853 5.47603
23.0793 19.9542 6.60862
2.23398 22.6479 7.10942
2.03276 23.4751 4.56372
4.37501 21.7511 5.42552
6.37637 22.6677 7.2682
6.49582 23.4747 4.77237
8.42851 21.5904 5.56708
10.634 22.81 7.37323
10.4723 23.7094 4.76459
12.8567 21.6542 5.76036
14.8534 22.6883 7.49999
14.8317 23.2831 4.72149
16.8475 21.542 5.71496
19.0388 22.6456 7.65344
19.0787 23.4334 4.87282
21.2172 21.8212 5.39951
25.0489 21.692 5.36796
23.0725 22.6034 7.67886
22.931 23.5299 4.74189
4.3159 28.1619 4.78079
2.0712 26.1462 5.79752
4.23329 24.5621 6.5465
4.16996 27.2067 7.31505
0.108997 24.5023 6.85075
25.1159 27.4154 7.30313
6.25807 26.2239 5.58432
8.68658 24.5168 6.43304
8.74759 27.2374 7.56853
10.8415 26.361 5.75215
12.5662 27.2326 7.4776
12.6441 24.5506 6.653
12.7132 27.9313 4.6156
14.7625 26.247 5.70047
17.0241 27.1873 7.34766
16.9178 28.1209 4.7775
17.0534 24.6131 6.61245
18.9497 26.2131 5.7722
20.9156 24.4651 6.56193
20.8764 0.105406 4.5936
21.2485 27.4917 7.46964
23.3589 26.3224 5.7737
2.09454 2.93297 10.1068
0.254247 1.20611 11.226
4.07742 1.16839 11.3533
4.22755 1.95018 8.16296
6.41065 2.78735 10.402
6.15562 0.241948 9.37355
8.15563 2.09841 8.49195
8.3826 3.72964 12.0281
8.59014 1.23658 11.1013
10.4037 3.00888 10.159
12.6437 1.03584 10.9565
12.7651 1.71641 8.45506
14.9645 2.79831 9.94871
12.838 3.56818 12.0722
16.8039 1.76926 8.25997
14.7632 0.142399 9.16885
16.8207 0.872458 11.3857
18.7312 2.59643 10.3425
20.8471 0.924273 11.2053
18.9221 0.139346 9.33984
25.1584 1.93891 8.64291
23.2051 2.90782 10.406
2.09741 5.65499 11.1146
1.9603 6.46683 8.36727
0.0324919 4.58258 9.60084
4.10984 4.75569 9.31761
4.2646 7.61908 10.2769
6.20454 5.78897 11.3935
6.54832 6.58152 8.42563
8.39199 7.62719 10.2619
8.58697 4.79988 9.31023
10.6319 5.72327 11.2386
10.484 6.44509 8.53846
12.476 4.64396 9.43662
12.8979 7.57894 10.0492
14.9708 5.50479 11.3413
15.0612 6.53324 8.48103
16.7487 7.64789 9.96593
17.0825 4.99232 9.35334
18.792 5.50326 11.3111
19.0018 6.81691 8.42853
20.9793 4.56212 9.24247
21.1265 7.49049 10.1467
24.8777 7.68382 9.95059
23.1123 5.75387 11.2117
22.9072 6.73374 8.4106
2.27359 9.59607 9.36766
0.24339 10.1876 10.986
4.0931 10.2898 11.0942
4.43501 11.3565 8.5379
6.29046 9.55673 9.42331
8.43652 11.3472 8.311
6.44951 12.371 10.2223
8.46287 10.2818 11.3517
10.7888 9.46784 9.15566
10.4111 8.47607 12.0722
12.7704 10.219 10.965
12.8799 11.121 8.31713
14.8705 9.53494 9.17722
14.8262 8.24579 11.9535
16.8278 11.5192 8.1956
16.9619 10.4332 11.2363
19.1186 9.59886 9.45138
20.9333 10.3424 11.1503
0.0259787 11.2345 8.56957
21.0406 11.473 8.15004
23.0293 9.4312 9.36011
23.1583 8.36181 12.0869
1.9989 12.4681 10.2798
1.99097 15.2496 10.9266
4.08897 14.1836 9.23164
0.0738856 14.1782 9.07489
2.41781 16.0197 8.38911
6.52115 14.9441 11.0975
6.30507 15.9351 8.37524
8.54321 14.3198 9.31157
10.7645 12.3079 10.2573
10.6678 14.8846 11.2879
10.8256 16.1243 8.21462
12.8558 14.2464 9.0646
14.7571 12.4594 10.073
14.8335 15.2186 10.9898
14.7883 15.976 8.31412
16.7116 14.1697 9.10263
18.9573 12.5429 10.2474
18.8247 14.9566 11.1983
20.8668 14.1589 9.18759
18.904 15.9511 8.55661
23.1411 12.547 10.3031
23.1011 15.0477 11.4567
2.10592 18.7488 9.48751
0.189558 19.8607 11.2667
2.47056 17.7699 12.0454
4.27958 19.882 11.1122
4.3595 16.9236 10.2885
6.44548 18.9224 9.3077
8.36743 19.7354 11.1789
8.61908 16.8215 10.1624
10.621 18.9774 9.26081
10.6612 17.6265 12.0368
12.689 20.0525 11.2766
12.8044 16.9617 10.1006
14.8566 18.878 9.20109
16.7507 17.1482 10.239
14.7203 17.7001 11.9809
16.64 19.5921 11.4102
18.9999 18.7405 9.37188
20.9578 19.4997 11.1933
23.0068 16.0171 8.55279
25.1491 16.9999 10.1566
21.072 16.9865 10.4229
22.9692 18.877 9.2833
2.07697 21.5946 10.0672
4.03426 20.65 8.41493
0.0594705 20.7867 8.5429
0.0984724 23.4162 9.54054
0.0117475 22.4682 12.21
4.34508 23.4147 9.54124
6.36202 21.5628 10.4027
8.5546 23.7609 9.32428
8.65286 20.9213 8.49905
10.75 21.6357 10.0967
12.5414 20.8023 8.50827
12.8368 23.492 9.34256
14.712 21.7602 10.3697
12.5429 22.4751 12.0837
17.0551 20.4285 8.37145
16.8465 23.42 9.39391
18.9815 21.7583 10.3574
20.8912 23.6485 9.59953
20.9907 20.5666 8.5341
23.2671 21.6188 10.3344
2.28304 28.0658 9.56749
2.18755 24.5214 11.3351
2.13614 25.4423 8.68261
0.170406 26.2838 10.3149
2.18069 27.0429 12.1701
6.65924 25.2299 8.19148
4.19269 26.2812 10.4202
6.49176 24.2713 11.1199
6.30252 27.3535 12.1568
8.54062 26.3058 10.1537
10.8167 28.1502 9.27373
10.3975 24.3834 11.4943
10.4978 25.4965 8.35765
14.6964 24.2663 11.2561
12.8253 26.415 10.3379
14.777 25.2536 8.69486
14.8166 27.1111 12.099
16.7155 26.2878 10.4132
18.9548 24.2626 11.4009
18.9378 25.1277 8.5391
18.7479 27.1424 11.9111
21.0627 26.09 10.2803
23.1819 28.037 9.26973
22.989 24.3185 11.3084
23.3187 25.4681 8.50873
23.0769 27.3194 12.1584
2.02706 1.59213 13.1499
4.42902 2.92092 14.9105
2.15923 0.971213 15.9895
25.0138 0.0741554 13.7939
4.11143 3.72322 12.3366
4.46737 0.201929 14.0154
6.32877 0.758195 15.809
6.44834 1.76771 13.0091
8.58185 2.86677 15.1629
10.5839 1.03973 15.8439
10.4696 1.69067 13.073
8.42423 28.1414 14.0757
12.5093 28.1814 14.0999
12.4948 2.73211 15.1705
16.7003 3.68674 12.3294
14.7227 1.93942 13.0914
14.5395 0.795496 16.0182
16.6767 2.65418 15.0733
18.6302 1.88074 13.1093
19.1446 0.914947 15.9576
25.1735 3.62258 12.3646
0.0877511 2.66165 15.0989
21.1283 2.92238 15.1633
21.0345 3.81068 12.0881
22.9509 0.942876 15.6169
22.9847 2.01128 12.9851
1.87454 4.78677 13.9587
2.06103 7.64169 14.8424
4.03945 6.41374 13.1653
0.0262985 6.60797 13.2384
0.00876694 5.41526 16.0143
4.55406 5.58479 15.9077
6.4858 4.65219 13.7712
6.47869 7.27254 15.0955
8.73366 6.74632 13.0334
10.694 4.51076 14.1065
10.7106 7.48994 15.1742
12.4926 6.43402 13.2053
14.5972 4.78792 14.2247
14.8699 7.6596 14.8976
12.8269 5.73635 16.0708
17.0558 6.43073 12.9793
18.9541 4.9696 14.2608
19.0853 7.52182 14.8946
20.9646 6.63357 13.2282
20.9311 5.57487 16.005
23.2097 4.64602 13.9691
22.9053 7.57674 15.0625
2.09749 8.29089 12.2542
2.32955 10.2423 15.7435
2.1026 11.1988 12.8804
4.14393 9.43747 13.8434
0.265216 9.5922 13.9368
6.56797 8.35575 12.3587
6.51576 11.3983 12.9062
6.59635 10.3149 15.8797
8.61626 9.44459 14.0067
8.57603 12.1132 14.8417
10.8874 11.3678 13.035
10.6242 10.2472 15.8282
12.8432 9.42067 13.8346
14.8688 10.927 12.973
14.7553 10.3894 15.9486
16.851 9.52101 14.1451
18.8394 8.31059 12.2426
18.8245 11.2928 12.8925
18.984 10.4923 16.0098
21.027 9.63656 14.0945
23.2727 11.4256 12.9143
21.1097 12.102 14.9402
22.9689 10.3471 16.0939
2.27636 14.1698 13.834
4.12372 12.4076 14.7938
0.175487 14.8736 15.9698
0.327288 16.0718 13.1757
0.173785 12.1654 15.0323
4.19358 15.8078 13.0218
4.15355 13.074 12.0441
4.47076 14.8047 15.7075
6.1161 13.9593 13.6916
8.80938 13.0007 12.1502
8.43504 15.2262 15.9121
10.7198 14.1224 13.7668
8.68826 15.7242 12.9078
12.5661 15.9214 13.089
12.6739 13.0235 12.2777
12.7255 12.4257 15.0677
12.4898 14.9813 15.906
14.5475 14.1273 13.9183
16.7699 13.0969 12.2751
16.6289 12.0984 14.8657
16.9235 15.2322 15.853
18.954 14.0376 13.8609
20.8759 15.1586 15.6975
25.1819 13.0214 11.9955
21.1942 13.0751 12.1525
23.2036 14.0633 13.926
2.09667 16.8254 15.0114
2.43101 19.39 15.9073
-0.0152022 18.8874 13.9303
6.4316 17.9698 12.0178
4.36799 18.5858 13.8468
6.563 16.9212 14.6781
6.25567 19.475 15.693
8.35184 18.6378 13.834
10.4216 16.778 14.7096
10.5613 19.8637 16.0071
12.6398 18.8175 14.0593
14.8078 16.9546 15.1462
16.8332 18.5143 14.0454
14.8918 19.7351 16.2068
16.7237 16.1664 13.0615
18.8062 17.7758 12.1152
18.8218 16.7818 15.0639
18.9455 19.721 15.8008
23.2517 17.7834 12.0171
21.0282 18.7187 14.0519
21.099 16.1692 13.189
23.2995 16.7767 14.8329
22.9965 19.6264 15.8525
2.07042 20.5571 12.9716
2.44483 23.5479 13.9155
0.224524 21.6096 14.9337
4.30139 21.4412 15.0946
4.48088 22.5087 12.071
8.31773 22.5806 12.0776
6.51938 20.5475 13.068
6.16437 23.4538 14.0554
8.59386 21.6892 15.1097
10.5775 20.7259 13.0991
10.5721 23.5002 14.2364
12.4597 21.6014 14.8138
14.5154 20.755 13.1206
14.5136 23.5009 13.9378
16.6493 22.5657 12.2767
16.7659 21.4804 15.0523
18.9888 20.7444 13.167
18.9454 23.303 13.9444
20.8331 21.4019 15.0969
21.1498 22.6434 12.076
23.2936 20.7107 12.9459
23.1888 23.3761 13.8644
2.34021 26.3251 14.8456
0.271423 25.2332 13.2976
0.248919 24.0685 15.9729
4.2808 25.1948 12.9485
6.29396 26.3835 14.8509
4.40141 24.0626 16.0445
8.29087 24.3906 16.2117
8.50757 25.2216 13.1857
10.459 26.3645 14.8739
10.5548 27.1067 12.3251
12.4069 25.2064 13.2015
12.4642 24.6145 16.0959
14.9703 26.2943 14.9383
17.0119 25.5094 13.1867
16.8229 28.1648 13.872
16.6866 24.4662 15.7737
19.0045 26.3485 14.9184
20.9872 25.4185 13.0628
21.1026 0.0101479 14.0285
20.994 24.5288 15.7216
23.1062 26.4081 14.6985
2.14128 2.80634 19.5129
2.09026 3.55482 16.7512
0.176441 1.82922 17.6671
4.06731 1.77728 17.987
6.11483 2.88576 19.7351
6.56042 3.81902 16.8261
8.4635 2.06486 17.9047
10.5457 2.67924 19.8693
10.4859 3.84852 16.971
12.6022 1.7389 17.7745
14.7513 2.89901 19.7885
14.864 3.65913 17.0787
14.9777 0.0687156 18.8509
16.923 1.59469 17.655
18.9219 2.66693 19.4726
18.7778 3.7717 16.8647
18.8962 0.0696858 18.6301
20.9028 1.94981 17.5978
23.2488 2.76812 19.6336
23.2403 3.69674 16.9362
23.2956 0.113625 18.7372
2.35857 6.68098 17.6891
0.112511 7.62385 19.6714
4.20135 4.78999 18.5039
8.42095 5.46395 15.9763
4.26117 7.45245 19.4986
6.20258 6.60292 17.9233
8.28877 7.56914 19.7649
8.54612 4.61629 18.7091
10.7742 6.61164 17.777
12.7396 4.78165 18.6137
12.6875 7.49302 19.5467
16.8485 5.77724 15.8957
16.6364 4.82725 18.5903
14.6839 6.67713 17.7873
16.9236 7.72125 19.6087
18.8937 6.55103 17.8093
20.8691 7.62851 19.6578
25.0084 4.50726 18.6291
21.0956 4.61472 18.5972
23.108 6.7674 17.7816
2.06092 9.49318 18.6393
0.033222 11.3818 17.5966
4.2817 8.30388 16.8447
4.44955 11.2824 17.4605
6.46598 9.55058 18.4846
8.46015 11.2938 17.4785
8.76897 8.48018 16.6713
10.5379 9.28071 18.8186
12.604 8.39182 16.8648
12.6619 11.5082 17.8479
14.9435 9.42526 18.7786
16.8995 8.79471 16.8436
16.9039 11.3078 17.8833
18.8441 9.40951 18.6988
20.9071 11.2853 17.6268
24.9935 8.50452 16.8352
21.1191 8.58336 16.5297
22.9305 9.22485 18.5926
2.35398 12.2054 19.767
2.27196 13.0519 16.8667
2.29444 15.9099 17.5902
6.37513 12.3097 19.2871
4.37054 13.9837 18.5515
6.23892 13.0012 16.6126
6.45938 15.9815 17.9175
8.44434 14.2074 18.5141
10.5134 12.3587 19.5902
10.6644 13.2554 16.895
10.3318 15.9894 17.8592
12.5319 14.1328 18.6261
14.5004 12.3015 19.7604
14.6645 13.3767 16.9187
19.1386 12.3577 19.508
17.1785 14.2884 18.7225
18.9742 13.3352 16.7475
19.1391 15.9445 17.9255
21.112 14.0349 18.6565
25.0425 14.0366 18.6344
23.0055 12.3786 19.4785
23.3076 13.1415 16.8203
23.1557 15.836 17.889
2.08004 18.6794 18.6869
0.127543 17.7217 16.6247
4.18758 17.6275 16.6455
4.41128 16.7572 19.6426
6.27206 18.7194 18.9341
8.269 16.9746 19.469
8.40395 17.8646 16.8833
10.6319 18.6906 18.9153
14.9223 16.295 17.9022
12.6478 17.0577 19.6108
12.7469 17.9899 16.9068
14.6556 18.7207 18.8816
16.8798 18.0143 16.6869
17.1002 16.9981 19.5599
18.9445 18.9067 18.724
21.0705 17.0281 19.7525
25.1921 16.9048 19.4324
21.1489 17.8025 16.6502
23.3765 18.5736 18.6772
2.04231 21.596 19.8806
2.30856 22.4006 16.8787
4.28077 20.5752 17.6841
0.228292 20.4833 17.7645
4.25073 23.4612 18.7807
6.52779 21.5425 19.8395
6.35497 22.5413 17.0634
8.31373 20.8105 17.9117
8.36654 23.4855 18.7613
10.3081 21.556 19.775
10.4588 22.5199 16.87
12.648 23.7117 18.7473
12.7572 20.6368 17.9097
14.838 21.713 19.5868
14.6045 22.5782 16.8665
16.6959 20.8714 17.8914
16.9889 23.6104 18.4827
18.7918 21.5578 19.5142
18.9304 22.5346 16.6782
0.180571 23.1994 18.6542
20.9053 23.5211 18.3783
21.132 20.4805 17.6597
23.2104 21.6832 19.6826
23.4261 22.3236 16.6318
2.01167 0.00147647 18.4171
2.31788 25.2718 17.7122
0.0289346 26.2916 19.5382
25.0746 27.1683 16.8186
4.29876 26.2525 19.612
6.36912 28.0799 18.4618
4.40982 27.1335 16.9497
6.13575 25.4496 17.6466
8.35538 27.0209 17.0865
10.3632 28.0646 18.7454
8.51761 26.1264 19.6571
10.628 25.3937 17.9241
12.3973 26.4043 19.5597
12.6576 27.2908 16.8111
14.5742 25.5651 17.8468
16.8694 27.0567 16.8438
16.8487 26.4333 19.4961
18.9321 25.227 17.7375
21.0454 27.0536 16.6597
21.1033 26.1228 19.3429
23.0626 25.133 17.6809
2.027 1.88297 22.408
0.133079 3.58885 21.6405
25.1466 0.775779 20.3742
25.1465 0.116234 23.5848
4.10667 3.69338 21.382
4.17123 0.66814 20.528
6.21332 2.00814 22.5798
8.18243 3.66454 21.3932
8.4732 0.0431754 23.3557
8.41888 0.957277 20.3491
10.643 2.01101 22.5509
12.5398 1.02824 20.925
12.6547 0.162314 23.3987
12.8427 3.60603 21.6658
14.7808 2.15095 22.6317
16.7075 3.80458 21.677
16.8379 28.0577 23.6301
17.118 1.00641 20.443
19.0172 1.78682 22.4205
20.9725 0.911906 20.3902
21.1704 3.76862 21.629
23.2966 1.71152 22.1743
21.1012 0.116215 23.6741
2.20449 4.68691 23.6098
2.06606 5.47564 20.6703
4.01638 6.67656 22.4344
6.23004 4.59044 23.2644
6.31734 5.56141 20.7528
8.25959 6.6663 22.3507
10.4394 4.95912 23.4022
10.5128 5.61733 20.4024
12.8624 6.79182 22.4931
14.5401 4.94781 23.2572
14.7728 5.56433 20.6005
16.7863 6.62585 22.5949
19.2358 4.76023 23.4447
18.9405 5.68066 20.4702
0.0634696 6.66715 22.3252
21.2802 6.4861 22.6353
23.1818 4.85299 23.4336
23.1045 5.70173 20.2716
1.97272 8.73074 21.4776
2.13175 11.3354 22.3023
4.11333 9.47404 23.1738
4.14794 10.1676 20.5218
25.1909 9.46827 23.2991
6.41646 8.50825 21.3605
6.37308 11.4886 22.362
8.37393 9.45137 23.2008
8.50915 10.4033 20.7098
10.4511 8.41365 21.3333
10.3039 11.0543 22.2395
12.657 9.34487 23.4784
12.534 10.5322 20.5122
15.04 8.29707 21.4252
14.8502 11.4675 22.292
16.9317 9.14386 23.3378
17.0275 10.1768 20.7142
18.8213 8.31066 21.4465
19.2345 11.3618 22.6546
25.1347 10.2675 20.5765
21.0864 10.5076 20.4253
21.1865 9.48503 23.2148
23.1956 8.22156 21.42
23.0891 11.1555 22.4521
2.13142 14.1993 23.159
2.3107 14.781 20.4489
0.274622 13.1678 21.4094
0.039424 16.0794 22.6717
4.31391 13.4171 21.6131
6.42563 14.1477 23.3333
6.31962 14.9389 20.6283
8.2266 13.0757 21.6053
10.4551 14.1814 23.427
10.5391 14.9266 20.4096
12.5805 15.8485 22.4165
12.6034 13.1496 21.5828
14.5902 14.0338 23.2637
16.6968 13.3022 21.4081
14.9919 15.2017 20.4782
16.9816 15.9272 22.3458
19.0336 14.0142 23.5738
19.0045 15.212 20.5742
21.1969 13.1553 21.4614
23.3273 14.0547 23.2724
23.1115 15.0982 20.2796
2.24292 17.9632 21.4624
4.07376 19.7869 20.8119
0.201655 19.732 20.6373
4.33348 16.2859 22.5166
4.26158 18.8553 23.5739
6.36337 17.8135 21.4362
8.3957 18.7499 23.6323
8.35064 16.1846 22.5573
8.60691 19.5776 20.6853
10.4222 17.9806 21.6567
12.5112 19.7296 20.6763
12.7756 18.7442 23.3714
14.7914 17.7515 21.6424
16.7831 18.664 23.3866
16.9886 19.71 20.6762
19.2423 17.941 21.1984
21.2008 18.8354 23.2009
0.123095 18.7506 23.7222
21.0202 19.6332 20.6919
21.0496 16.2181 22.4536
23.0269 17.6863 21.4354
2.20916 20.8028 22.5079
1.95087 23.643 23.4296
4.18151 22.4722 21.7257
6.21523 20.4643 22.3021
6.60143 23.5768 23.4187
8.581 22.5049 21.8108
10.778 20.531 22.5521
10.4976 23.6422 23.4799
12.6898 22.4394 21.4522
14.6342 20.4023 22.5888
14.7879 23.5603 23.2804
16.767 22.5746 21.4492
19.0605 20.5961 22.216
18.7921 23.3653 23.3887
25.0838 22.6289 21.6176
21.1982 22.2677 21.6456
23.02 20.8372 22.4692
23.0796 23.4253 23.4547
1.99246 24.2856 20.8887
2.16786 26.9983 21.5873
4.29011 28.0054 23.5602
4.34658 25.4368 22.5684
6.41913 24.4219 20.6715
6.25061 27.0284 21.4679
8.35734 25.3898 22.488
10.6683 24.6061 20.5799
10.3978 27.2724 21.2733
12.8135 25.3431 22.4387
14.6118 24.4568 20.6025
14.7922 27.2088 21.595
16.7089 25.2861 22.3441
18.9396 24.3325 20.2665
19.0403 27.2858 21.4836
24.9804 25.4441 22.4533
20.9321 25.48 22.5044
22.8468 24.3197 20.8295
23.068 27.084 21.576
2.15836 3.8436 26.3739
1.96687 0.943156 25.2701
0.0500987 2.7415 24.5768
4.19409 2.68883 24.5519
4.3373 1.76212 27.1296
6.3649 3.71395 26.0475
6.55564 1.0362 25.3858
8.3514 1.7711 27.1326
8.59297 2.62668 24.3255
10.4967 3.75821 25.9973
10.484 0.758879 25.2972
12.503 2.85719 24.3583
12.6532 1.98064 27.0178
14.8564 3.91254 26.0955
14.785 0.745392 25.3234
16.7648 1.94388 26.9496
16.9193 2.75878 24.4156
19.2215 3.71309 26.2834
18.7101 0.780323 25.3704
18.6886 28.119 28.0997
23.2647 28.1771 28.0793
21.2261 3.08304 24.4583
0.0841922 1.72043 27.2483
21.2932 1.94794 27.124
23.1441 3.6972 26.3844
23.2423 1.0916 25.5606
2.12918 7.62758 24.158
0.132394 5.05537 28.0124
2.17912 6.45574 27.2593
4.06083 5.72732 25.3235
0.298841 5.95046 25.4775
4.13863 4.73009 28.1336
6.3118 6.77228 27.0916
6.43011 7.49307 24.4306
8.40267 5.69106 25.2051
10.3343 6.33257 27.1134
10.6013 7.54425 24.2627
12.4984 5.8457 25.2419
12.5644 4.56497 27.9975
14.8096 7.59709 24.2244
14.6052 6.71989 27.3141
16.7875 5.76864 25.1797
16.7709 4.70999 27.8953
19.051 6.74691 27.0159
18.8411 7.68009 24.4298
21.1626 4.95064 28.0902
20.9955 5.64175 25.5118
23.0968 7.78866 24.3114
23.1053 6.79232 27.0956
2.23486 10.2814 25.1386
0.102413 8.59191 26.4762
4.10327 11.1301 27.2765
6.43528 9.17933 27.961
4.40483 8.57819 26.1899
6.17367 10.2961 25.1239
8.31896 11.2632 26.8398
10.3323 9.18602 28.1225
8.41938 8.69334 26.1568
8.6172 12.08 24.2232
10.595 10.302 25.0486
12.6962 11.2421 26.8934
12.7191 8.58316 25.8787
14.6265 9.36021 28.0151
14.7418 10.5404 25.2012
16.5598 11.2358 27.0031
18.9944 9.43863 27.912
17.0272 8.48136 26.028
19.0757 10.3636 25.2205
20.953 8.46995 26.3231
25.1851 11.2489 27.3644
21.1645 11.5222 27.1674
23.3226 10.5517 25.0202
2.24679 13.2781 26.1198
0.119325 12.5112 24.3708
2.20257 16.1427 27.348
4.17645 13.9686 27.9767
4.15239 12.2605 24.492
4.23315 15.2773 25.2065
6.15493 13.395 26.0583
8.44095 15.1141 25.2034
12.4477 13.9447 28.0255
12.543 12.1722 24.2384
10.4567 13.3615 26.2444
10.5999 15.8893 27.1267
12.4658 14.8822 25.025
14.6474 13.1092 26.1905
14.7223 15.7937 27.0936
16.8791 14.2097 27.9205
17.0221 12.1986 24.356
16.9846 15.0043 25.317
18.9496 13.1049 26.0504
18.8904 15.9807 26.9636
21.0428 14.0119 27.9472
0.356411 15.3281 25.5102
20.9345 15.0401 25.3652
21.3151 12.3389 24.4496
23.5175 13.2204 26.2174
23.5576 15.972 27.297
2.24267 16.9697 24.4187
2.26898 19.8715 25.3933
6.36454 15.9508 27.2563
4.31495 18.0823 25.9629
6.49764 18.5948 28.1748
6.33078 16.8133 24.4657
6.41954 19.7644 25.409
8.48095 17.897 26.137
10.5892 18.9079 28.0732
10.4381 16.7921 24.5367
10.3762 19.7038 25.5446
14.5792 18.598 27.8905
12.709 17.761 26.2452
14.6711 16.8497 24.3845
14.7479 19.3959 25.1944
16.5067 17.6471 26.2738
19.0931 18.8162 28.1775
19.0968 16.7897 24.2917
18.7748 19.8412 25.215
0.0857447 17.995 26.0997
21.0087 17.9377 25.9629
23.08 16.8456 24.4931
23.2159 19.8476 25.3712
2.03074 22.8114 26.3507
0.0508182 21.4811 24.6145
25.1314 20.6235 27.2497
4.19219 20.617 27.1873
4.17497 21.6165 24.3405
6.19751 22.7318 26.3028
8.47727 21.6403 24.4102
8.39515 20.6143 27.1091
10.6726 22.3989 26.2631
12.4495 24.1506 25.4235
12.4665 20.4956 27.3106
12.6858 21.6867 24.3304
12.8196 23.2781 27.9746
14.5837 22.2577 26.2728
20.7371 21.5505 24.0944
16.8337 23.413 27.8413
16.8711 21.671 24.2444
17.0429 20.3779 27.1287
18.8612 22.4363 26.3838
20.8575 20.6703 27.2165
24.8865 23.2972 28.0791
22.8925 22.5927 26.0952
2.35059 26.1445 24.3728
2.09321 25.2145 27.1787
0.128334 27.4118 26.3659
4.31285 27.2302 26.02
4.30609 24.4986 25.3929
6.25501 25.2762 27.3167
6.27768 26.2562 24.2668
8.61086 24.3537 25.2557
8.67036 27.33 26.1248
10.7004 28.0859 27.9189
10.5735 25.4346 27.0566
10.6876 26.2446 24.412
14.7452 27.9414 27.8425
12.6196 27.215 26.1008
14.7641 25.4607 27.1023
14.7913 26.3629 24.3558
16.8018 27.3313 26.2034
16.6933 24.4818 24.9402
18.8196 25.4427 27.0221
18.8935 26.3668 24.4944
20.788 27.1782 26.2831
24.8807 24.5646 25.3295
21.074 24.6168 25.0049
23.0244 25.487 27.1986
23.003 26.2683 24.2513
