POSCAR file written by OVITO Pro 3.11.2
1
25.20001289 0.0 0.0
1.7e-15 28.17447093 0.0
1.7e-15 4.5e-15 28.17447093
Mn O
1080 1080
Cartesian
2.26667e-16 2.81745 0.939149
2.1 3.7566 2.81745
4.2 0.0 0.0
6.3 0.939149 1.8783
4.2 2.81745 0.939149
10.5 3.7566 2.81745
8.4 0.0 0.0
8.4 2.81745 0.939149
12.6 1.8783 3.7566
12.6 0.0 0.0
14.7 0.939149 1.8783
16.8 1.8783 3.7566
16.8 2.81745 0.939149
21.0 1.8783 3.7566
21.0 2.81745 0.939149
23.1 3.7566 2.81745
23.1 0.939149 1.8783
4.53333e-16 5.63489 1.8783
2.1 6.57404 3.7566
6.3 6.57404 3.7566
6.3 7.51319 0.939149
10.5 6.57404 3.7566
10.5 7.51319 0.939149
10.5 4.69575 0.0
14.7 6.57404 3.7566
16.8 5.63489 1.8783
18.9 4.69575 0.0
18.9 7.51319 0.939149
21.0 5.63489 1.8783
23.1 4.69575 0.0
23.1 7.51319 0.939149
6.8e-16 8.45234 2.81745
9.06667e-16 11.2698 3.7566
5.66667e-16 9.39149 0.0
2.1 10.3306 1.8783
6.3 10.3306 1.8783
8.4 8.45234 2.81745
8.4 11.2698 3.7566
10.5 10.3306 1.8783
12.6 11.2698 3.7566
16.8 8.45234 2.81745
12.6 9.39149 0.0
21.0 8.45234 2.81745
18.9 10.3306 1.8783
23.1 10.3306 1.8783
1.02e-15 15.0264 1.8783
2.1 15.9655 3.7566
4.2 12.2089 0.939149
4.2 15.0264 1.8783
6.3 14.0872 0.0
8.4 12.2089 0.939149
12.6 12.2089 0.939149
10.5 14.0872 0.0
10.5 15.9655 3.7566
14.7 13.1481 2.81745
12.6 15.0264 1.8783
16.8 12.2089 0.939149
14.7 14.0872 0.0
16.8 15.0264 1.8783
18.9 13.1481 2.81745
18.9 15.9655 3.7566
21.0 12.2089 0.939149
23.1 13.1481 2.81745
23.1 15.9655 3.7566
1.24667e-15 17.8438 2.81745
4.2 17.8438 2.81745
4.2 18.783 0.0
6.3 19.7221 1.8783
10.5 16.9047 0.939149
8.4 17.8438 2.81745
14.7 16.9047 0.939149
16.8 17.8438 2.81745
12.6 18.783 0.0
14.7 19.7221 1.8783
18.9 16.9047 0.939149
21.0 17.8438 2.81745
21.0 18.783 0.0
23.1 16.9047 0.939149
1.47333e-15 20.6613 3.7566
2.1 22.5396 2.81745
2.1 23.4787 0.0
10.5 22.5396 2.81745
10.5 23.4787 0.0
12.6 20.6613 3.7566
12.6 21.6004 0.939149
14.7 22.5396 2.81745
16.8 21.6004 0.939149
14.7 23.4787 0.0
21.0 20.6613 3.7566
18.9 23.4787 0.0
23.1 22.5396 2.81745
23.1 23.4787 0.0
2.1 26.2962 0.939149
4.2 24.4179 1.8783
6.3 25.357 3.7566
4.2 27.2353 2.81745
8.4 24.4179 1.8783
8.4 27.2353 2.81745
10.5 25.357 3.7566
12.6 27.2353 2.81745
14.7 26.2962 0.939149
16.8 27.2353 2.81745
21.0 24.4179 1.8783
18.9 26.2962 0.939149
18.9 25.357 3.7566
25.2 27.2353 2.81745
23.1 25.357 3.7566
23.1 26.2962 0.939149
4.53333e-16 0.939149 6.57404
2.1 2.81745 5.63489
6.8e-16 3.7566 7.51319
4.2 3.7566 7.51319
6.3 7.5e-16 4.69575
6.3 2.81745 5.63489
8.4 3.7566 7.51319
10.5 7.5e-16 4.69575
12.6 0.939149 6.57404
14.7 7.5e-16 4.69575
14.7 2.81745 5.63489
16.8 3.7566 7.51319
21.0 0.939149 6.57404
18.9 2.81745 5.63489
21.0 3.7566 7.51319
23.1 7.5e-16 4.69575
23.1 2.81745 5.63489
5.66667e-16 4.69575 4.69575
7.93333e-16 7.51319 5.63489
4.2 4.69575 4.69575
6.3 5.63489 6.57404
10.5 5.63489 6.57404
12.6 4.69575 4.69575
12.6 7.51319 5.63489
16.8 4.69575 4.69575
16.8 7.51319 5.63489
18.9 5.63489 6.57404
1.02e-15 10.3306 6.57404
2.1 9.39149 4.69575
6.3 8.45234 7.51319
4.2 10.3306 6.57404
10.5 8.45234 7.51319
8.4 10.3306 6.57404
10.5 9.39149 4.69575
14.7 9.39149 4.69575
12.6 10.3306 6.57404
16.8 10.3306 6.57404
18.9 8.45234 7.51319
23.1 8.45234 7.51319
23.1 9.39149 4.69575
1.24667e-15 13.1481 7.51319
2.1 12.2089 5.63489
2.1 15.0264 6.57404
6.3 12.2089 5.63489
4.2 14.0872 4.69575
6.3 15.0264 6.57404
8.4 13.1481 7.51319
12.6 14.0872 4.69575
14.7 12.2089 5.63489
16.8 13.1481 7.51319
14.7 15.0264 6.57404
18.9 12.2089 5.63489
18.9 15.0264 6.57404
21.0 14.0872 4.69575
21.0 13.1481 7.51319
1.58667e-15 19.7221 6.57404
2.1 18.783 4.69575
6.3 17.8438 7.51319
4.2 19.7221 6.57404
6.3 18.783 4.69575
8.4 19.7221 6.57404
10.5 18.783 4.69575
14.7 17.8438 7.51319
12.6 19.7221 6.57404
14.7 18.783 4.69575
16.8 16.9047 5.63489
21.0 16.9047 5.63489
18.9 18.783 4.69575
21.0 19.7221 6.57404
23.1 17.8438 7.51319
6.3 21.6004 5.63489
4.2 22.5396 7.51319
8.4 22.5396 7.51319
8.4 23.4787 4.69575
14.7 21.6004 5.63489
16.8 22.5396 7.51319
16.8 23.4787 4.69575
25.2 23.4787 4.69575
23.1 21.6004 5.63489
2.1 24.4179 6.57404
4.2 26.2962 5.63489
6.3 27.2353 7.51319
8.4 26.2962 5.63489
10.5 27.2353 7.51319
14.7 24.4179 6.57404
14.7 27.2353 7.51319
18.9 24.4179 6.57404
23.1 24.4179 6.57404
5.66667e-16 1.5e-15 9.39149
2.1 1.8783 8.45234
4.2 1.5e-15 9.39149
6.3 0.939149 11.2698
10.5 0.939149 11.2698
10.5 1.8783 8.45234
12.6 1.5e-15 9.39149
14.7 0.939149 11.2698
12.6 2.81745 10.3306
16.8 1.5e-15 9.39149
16.8 2.81745 10.3306
18.9 0.939149 11.2698
21.0 1.5e-15 9.39149
18.9 1.8783 8.45234
23.1 0.939149 11.2698
1.02e-15 5.63489 11.2698
2.1 7.51319 10.3306
4.2 5.63489 11.2698
6.3 4.69575 9.39149
8.4 5.63489 11.2698
12.6 5.63489 11.2698
12.6 6.57404 8.45234
14.7 7.51319 10.3306
14.7 4.69575 9.39149
18.9 7.51319 10.3306
21.0 6.57404 8.45234
23.1 4.69575 9.39149
2.1 10.3306 11.2698
2.1 11.2698 8.45234
4.2 9.39149 9.39149
6.3 10.3306 11.2698
8.4 9.39149 9.39149
16.8 9.39149 9.39149
18.9 11.2698 8.45234
21.0 9.39149 9.39149
23.1 11.2698 8.45234
1.36e-15 12.2089 10.3306
1.47333e-15 15.9655 8.45234
6.3 14.0872 9.39149
4.2 15.9655 8.45234
8.4 12.2089 10.3306
12.6 12.2089 10.3306
10.5 14.0872 9.39149
12.6 15.0264 11.2698
16.8 12.2089 10.3306
14.7 14.0872 9.39149
16.8 15.0264 11.2698
12.6 15.9655 8.45234
16.8 15.9655 8.45234
23.1 14.0872 9.39149
2.1 16.9047 10.3306
1.7e-15 18.783 9.39149
6.3 16.9047 10.3306
4.2 18.783 9.39149
6.3 19.7221 11.2698
10.5 16.9047 10.3306
8.4 18.783 9.39149
10.5 19.7221 11.2698
14.7 16.9047 10.3306
14.7 19.7221 11.2698
18.9 16.9047 10.3306
18.9 19.7221 11.2698
21.0 18.783 9.39149
23.1 16.9047 10.3306
1.92667e-15 21.6004 10.3306
2.1 20.6613 8.45234
2.1 23.4787 9.39149
6.3 23.4787 9.39149
10.5 23.4787 9.39149
14.7 20.6613 8.45234
14.7 23.4787 9.39149
12.6 21.6004 10.3306
21.0 21.6004 10.3306
18.9 20.6613 8.45234
18.9 23.4787 9.39149
23.1 23.4787 9.39149
4.2 25.357 8.45234
6.3 26.2962 10.3306
8.4 24.4179 11.2698
12.6 24.4179 11.2698
16.8 24.4179 11.2698
16.8 25.357 8.45234
21.0 25.357 8.45234
25.2 24.4179 11.2698
23.1 26.2962 10.3306
2.1 2.81745 15.0264
2.1 3.7566 12.2089
4.2 1.8783 13.1481
6.3 3.7566 12.2089
4.2 0.939149 15.9655
8.4 0.939149 15.9655
8.4 1.8783 13.1481
10.5 3.7566 12.2089
12.6 1.8783 13.1481
14.7 2.81745 15.0264
16.8 1.8783 13.1481
21.0 0.939149 15.9655
18.9 3.7566 12.2089
18.9 2.81745 15.0264
23.1 2.81745 15.0264
23.1 3.7566 12.2089
1.13333e-15 4.69575 14.0872
2.1 5.63489 15.9655
1.36e-15 7.51319 15.0264
4.2 7.51319 15.0264
6.3 6.57404 13.1481
4.2 4.69575 14.0872
8.4 4.69575 14.0872
10.5 5.63489 15.9655
12.6 4.69575 14.0872
8.4 7.51319 15.0264
14.7 5.63489 15.9655
16.8 4.69575 14.0872
21.0 7.51319 15.0264
23.1 6.57404 13.1481
1.58667e-15 10.3306 15.9655
1.47333e-15 11.2698 13.1481
1.24667e-15 8.45234 12.2089
4.2 10.3306 15.9655
6.3 9.39149 14.0872
8.4 8.45234 12.2089
10.5 9.39149 14.0872
12.6 8.45234 12.2089
12.6 11.2698 13.1481
14.7 9.39149 14.0872
16.8 10.3306 15.9655
16.8 8.45234 12.2089
16.8 11.2698 13.1481
21.0 8.45234 12.2089
21.0 11.2698 13.1481
18.9 9.39149 14.0872
2.1 12.2089 15.0264
2.1 15.0264 15.9655
2.1 13.1481 12.2089
6.3 12.2089 15.0264
6.3 13.1481 12.2089
6.3 15.9655 13.1481
6.3 15.0264 15.9655
10.5 12.2089 15.0264
8.4 14.0872 14.0872
10.5 15.0264 15.9655
12.6 14.0872 14.0872
14.7 12.2089 15.0264
14.7 15.9655 13.1481
18.9 15.0264 15.9655
21.0 14.0872 14.0872
18.9 15.9655 13.1481
18.9 13.1481 12.2089
23.1 12.2089 15.0264
23.1 13.1481 12.2089
1.92667e-15 16.9047 15.0264
2.15333e-15 19.7221 15.9655
2.1 18.783 14.0872
4.2 16.9047 15.0264
8.4 16.9047 15.0264
8.4 19.7221 15.9655
12.6 16.9047 15.0264
12.6 19.7221 15.9655
14.7 18.783 14.0872
16.8 19.7221 15.9655
18.9 18.783 14.0872
23.1 18.783 14.0872
2.04e-15 20.6613 13.1481
2.1 21.6004 15.0264
2.26667e-15 23.4787 14.0872
4.2 20.6613 13.1481
4.2 23.4787 14.0872
8.4 20.6613 13.1481
8.4 23.4787 14.0872
12.6 20.6613 13.1481
10.5 22.5396 12.2089
12.6 23.4787 14.0872
16.8 23.4787 14.0872
18.9 22.5396 12.2089
21.0 23.4787 14.0872
21.0 20.6613 13.1481
2.1 28.1745 14.0872
2.1 24.4179 15.9655
2.49333e-15 26.2962 15.0264
2.1 25.357 13.1481
6.3 24.4179 15.9655
4.2 27.2353 12.2089
6.3 25.357 13.1481
10.5 24.4179 15.9655
8.4 27.2353 12.2089
12.6 27.2353 12.2089
14.7 28.1745 14.0872
12.6 26.2962 15.0264
16.8 26.2962 15.0264
18.9 24.4179 15.9655
18.9 25.357 13.1481
21.0 27.2353 12.2089
25.2 27.2353 12.2089
23.1 28.1745 14.0872
23.1 24.4179 15.9655
1.13333e-15 3.0e-15 18.783
2.1 1.8783 17.8438
4.2 2.81745 19.7221
10.5 1.8783 17.8438
8.4 3.7566 16.9047
12.6 2.81745 19.7221
14.7 1.8783 17.8438
12.6 3.7566 16.9047
16.8 3.7566 16.9047
16.8 2.81745 19.7221
21.0 3.0e-15 18.783
21.0 2.81745 19.7221
21.0 3.7566 16.9047
23.1 1.8783 17.8438
2.1 4.69575 18.783
1.47333e-15 6.57404 17.8438
2.1 7.51319 19.7221
6.3 4.69575 18.783
10.5 4.69575 18.783
10.5 7.51319 19.7221
12.6 6.57404 17.8438
16.8 6.57404 17.8438
18.9 4.69575 18.783
21.0 6.57404 17.8438
23.1 7.51319 19.7221
2.1 11.2698 17.8438
6.3 8.45234 16.9047
8.4 9.39149 18.783
10.5 11.2698 17.8438
10.5 8.45234 16.9047
14.7 8.45234 16.9047
16.8 9.39149 18.783
12.6 9.39149 18.783
21.0 9.39149 18.783
18.9 11.2698 17.8438
23.1 11.2698 17.8438
1.92667e-15 12.2089 19.7221
2.1 14.0872 18.783
4.2 15.9655 17.8438
6.3 14.0872 18.783
12.6 12.2089 19.7221
10.5 14.0872 18.783
16.8 12.2089 19.7221
14.7 14.0872 18.783
16.8 13.1481 16.9047
16.8 15.9655 17.8438
18.9 14.0872 18.783
21.0 15.9655 17.8438
23.1 14.0872 18.783
2.1 16.9047 19.7221
2.26667e-15 18.783 18.783
4.2 18.783 18.783
6.3 16.9047 19.7221
10.5 17.8438 16.9047
14.7 16.9047 19.7221
12.6 18.783 18.783
16.8 18.783 18.783
18.9 17.8438 16.9047
21.0 18.783 18.783
23.1 17.8438 16.9047
2.1 23.4787 18.783
6.3 20.6613 17.8438
4.2 22.5396 16.9047
8.4 21.6004 19.7221
10.5 20.6613 17.8438
10.5 23.4787 18.783
14.7 23.4787 18.783
16.8 22.5396 16.9047
14.7 20.6613 17.8438
18.9 23.4787 18.783
21.0 22.5396 16.9047
18.9 20.6613 17.8438
23.1 20.6613 17.8438
2.1 26.2962 19.7221
2.1 27.2353 16.9047
6.3 26.2962 19.7221
6.3 27.2353 16.9047
8.4 25.357 17.8438
10.5 27.2353 16.9047
14.7 26.2962 19.7221
16.8 25.357 17.8438
14.7 27.2353 16.9047
12.6 25.357 17.8438
18.9 26.2962 19.7221
23.1 26.2962 19.7221
1.47333e-15 1.8783 22.5396
2.1 0.939149 20.6613
6.3 0.939149 20.6613
8.4 1.8783 22.5396
10.5 3.7566 21.6004
12.6 1.8783 22.5396
14.7 0.939149 20.6613
21.0 1.8783 22.5396
18.9 3.7566 21.6004
1.58667e-15 5.63489 20.6613
4.2 4.69575 23.4787
4.2 5.63489 20.6613
6.3 6.57404 22.5396
8.4 4.69575 23.4787
8.4 5.63489 20.6613
16.8 4.69575 23.4787
14.7 6.57404 22.5396
12.6 4.69575 23.4787
21.0 5.63489 20.6613
23.1 6.57404 22.5396
2.1 9.39149 23.4787
2.04e-15 11.2698 22.5396
4.2 8.45234 21.6004
6.3 10.3306 20.6613
8.4 8.45234 21.6004
10.5 9.39149 23.4787
14.7 9.39149 23.4787
12.6 11.2698 22.5396
16.8 8.45234 21.6004
21.0 8.45234 21.6004
18.9 10.3306 20.6613
21.0 11.2698 22.5396
18.9 9.39149 23.4787
2.15333e-15 15.0264 20.6613
2.1 15.9655 22.5396
4.2 14.0872 23.4787
6.3 13.1481 21.6004
4.2 15.0264 20.6613
6.3 15.9655 22.5396
8.4 14.0872 23.4787
10.5 13.1481 21.6004
12.6 14.0872 23.4787
14.7 13.1481 21.6004
12.6 15.0264 20.6613
18.9 13.1481 21.6004
21.0 14.0872 23.4787
18.9 15.9655 22.5396
23.1 15.9655 22.5396
23.1 13.1481 21.6004
2.38e-15 17.8438 21.6004
2.1 18.783 23.4787
6.3 18.783 23.4787
6.3 19.7221 20.6613
8.4 17.8438 21.6004
10.5 18.783 23.4787
10.5 19.7221 20.6613
12.6 17.8438 21.6004
16.8 17.8438 21.6004
14.7 19.7221 20.6613
18.9 18.783 23.4787
21.0 17.8438 21.6004
23.1 19.7221 20.6613
2.1 22.5396 21.6004
4.2 20.6613 22.5396
4.2 23.4787 23.4787
8.4 20.6613 22.5396
10.5 22.5396 21.6004
12.6 20.6613 22.5396
14.7 22.5396 21.6004
16.8 23.4787 23.4787
21.0 20.6613 22.5396
18.9 22.5396 21.6004
25.2 23.4787 23.4787
2.1 28.1745 23.4787
6.3 28.1745 23.4787
4.2 24.4179 20.6613
6.3 25.357 22.5396
10.5 28.1745 23.4787
10.5 25.357 22.5396
8.4 27.2353 21.6004
12.6 24.4179 20.6613
12.6 27.2353 21.6004
18.9 28.1745 23.4787
21.0 24.4179 20.6613
21.0 27.2353 21.6004
25.2 24.4179 20.6613
23.1 28.1745 23.4787
1.58667e-15 0.939149 25.357
1.81333e-15 3.7566 26.2962
2.1 2.81745 24.4179
4.2 3.7566 26.2962
6.3 2.81745 24.4179
6.3 1.8783 27.2353
10.5 1.8783 27.2353
10.5 2.81745 24.4179
12.6 0.939149 25.357
14.7 2.81745 24.4179
18.9 2.81745 24.4179
21.0 3.7566 26.2962
2.1 5.63489 25.357
4.2 6.57404 27.2353
4.2 7.51319 24.4179
8.4 6.57404 27.2353
8.4 7.51319 24.4179
12.6 6.57404 27.2353
14.7 5.63489 25.357
16.8 6.57404 27.2353
12.6 7.51319 24.4179
18.9 5.63489 25.357
21.0 7.51319 24.4179
23.1 5.63489 25.357
25.2 6.57404 27.2353
2.15333e-15 10.3306 25.357
2.1 11.2698 27.2353
6.3 11.2698 27.2353
10.5 11.2698 27.2353
10.5 8.45234 26.2962
14.7 8.45234 26.2962
14.7 11.2698 27.2353
18.9 11.2698 27.2353
21.0 10.3306 25.357
23.1 8.45234 26.2962
2.1 12.2089 24.4179
2.1 15.0264 25.357
4.2 15.9655 27.2353
6.3 12.2089 24.4179
8.4 15.9655 27.2353
10.5 12.2089 24.4179
14.7 12.2089 24.4179
16.8 13.1481 26.2962
16.8 15.9655 27.2353
14.7 15.0264 25.357
21.0 13.1481 26.2962
25.2 15.9655 27.2353
23.1 15.0264 25.357
23.1 12.2089 24.4179
2.1 17.8438 26.2962
4.2 19.7221 25.357
10.5 17.8438 26.2962
12.6 16.9047 24.4179
16.8 16.9047 24.4179
16.8 19.7221 25.357
12.6 19.7221 25.357
21.0 19.7221 25.357
18.9 17.8438 26.2962
25.2 19.7221 25.357
23.1 17.8438 26.2962
2.1 20.6613 27.2353
4.2 22.5396 26.2962
6.3 21.6004 24.4179
6.3 20.6613 27.2353
8.4 22.5396 26.2962
14.7 21.6004 24.4179
16.8 22.5396 26.2962
18.9 21.6004 24.4179
23.1 20.6613 27.2353
23.1 21.6004 24.4179
3.06e-15 26.2962 24.4179
2.1 27.2353 26.2962
6.3 24.4179 25.357
6.3 27.2353 26.2962
8.4 25.357 27.2353
10.5 24.4179 25.357
12.6 25.357 27.2353
12.6 26.2962 24.4179
14.7 27.2353 26.2962
16.8 26.2962 24.4179
18.9 27.2353 26.2962
21.0 26.2962 24.4179
18.9 24.4179 25.357
25.2 25.357 27.2353
23.1 27.2353 26.2962
3.4e-16 1.8783 3.7566
2.1 0.939149 1.8783
8.4 1.8783 3.7566
10.5 0.939149 1.8783
12.6 2.81745 0.939149
14.7 3.7566 2.81745
18.9 3.7566 2.81745
2.1 4.69575 0.0
8.4 5.63489 1.8783
14.7 7.51319 0.939149
18.9 6.57404 3.7566
23.1 6.57404 3.7566
4.2 8.45234 2.81745
8.4 9.39149 0.0
12.6 8.45234 2.81745
14.7 10.3306 1.8783
16.8 11.2698 3.7566
21.0 9.39149 0.0
8.4 15.0264 1.8783
14.7 15.9655 3.7566
21.0 15.0264 1.8783
18.9 14.0872 0.0
23.1 14.0872 0.0
6.3 16.9047 0.939149
10.5 19.7221 1.8783
12.6 17.8438 2.81745
4.2 20.6613 3.7566
8.4 21.6004 0.939149
16.8 20.6613 3.7566
21.0 21.6004 0.939149
1.58667e-15 24.4179 1.8783
6.3 26.2962 0.939149
10.5 26.2962 0.939149
16.8 24.4179 1.8783
21.0 27.2353 2.81745
2.1 7.5e-16 4.69575
8.4 0.939149 6.57404
12.6 3.7566 7.51319
16.8 0.939149 6.57404
18.9 7.5e-16 4.69575
8.4 7.51319 5.63489
8.4 4.69575 4.69575
21.0 4.69575 4.69575
2.1 8.45234 7.51319
6.3 9.39149 4.69575
14.7 8.45234 7.51319
18.9 9.39149 4.69575
21.0 10.3306 6.57404
4.2 13.1481 7.51319
10.5 12.2089 5.63489
8.4 14.0872 4.69575
16.8 14.0872 4.69575
23.1 12.2089 5.63489
2.1 17.8438 7.51319
12.6 16.9047 5.63489
23.1 18.783 4.69575
1.81333e-15 22.5396 7.51319
4.2 23.4787 4.69575
12.6 23.4787 4.69575
21.0 23.4787 4.69575
21.0 22.5396 7.51319
18.9 21.6004 5.63489
2.1 27.2353 7.51319
6.3 24.4179 6.57404
12.6 26.2962 5.63489
21.0 26.2962 5.63489
23.1 27.2353 7.51319
2.1 0.939149 11.2698
6.3 1.8783 8.45234
8.4 1.5e-15 9.39149
8.4 2.81745 10.3306
21.0 2.81745 10.3306
23.1 1.8783 8.45234
2.1 4.69575 9.39149
6.3 7.51319 10.3306
10.5 4.69575 9.39149
16.8 5.63489 11.2698
16.8 6.57404 8.45234
18.9 4.69575 9.39149
6.3 11.2698 8.45234
10.5 11.2698 8.45234
14.7 10.3306 11.2698
14.7 11.2698 8.45234
18.9 10.3306 11.2698
23.1 10.3306 11.2698
2.1 14.0872 9.39149
4.2 12.2089 10.3306
8.4 15.0264 11.2698
8.4 15.9655 8.45234
21.0 15.9655 8.45234
16.8 18.783 9.39149
4.2 21.6004 10.3306
6.3 20.6613 8.45234
10.5 20.6613 8.45234
2.1 26.2962 10.3306
8.4 25.357 8.45234
12.6 25.357 8.45234
1.02e-15 0.939149 15.9655
10.5 2.81745 15.0264
14.7 3.7566 12.2089
12.6 0.939149 15.9655
21.0 1.8783 13.1481
2.1 6.57404 13.1481
6.3 5.63489 15.9655
14.7 6.57404 13.1481
16.8 7.51319 15.0264
21.0 4.69575 14.0872
18.9 5.63489 15.9655
4.2 8.45234 12.2089
8.4 11.2698 13.1481
12.6 10.3306 15.9655
21.0 10.3306 15.9655
4.2 14.0872 14.0872
10.5 13.1481 12.2089
10.5 15.9655 13.1481
14.7 15.0264 15.9655
14.7 13.1481 12.2089
1.81333e-15 17.8438 12.2089
4.2 17.8438 12.2089
10.5 18.783 14.0872
8.4 17.8438 12.2089
16.8 17.8438 12.2089
16.8 16.9047 15.0264
21.0 17.8438 12.2089
21.0 16.9047 15.0264
2.1 22.5396 12.2089
6.3 21.6004 15.0264
10.5 21.6004 15.0264
14.7 22.5396 12.2089
18.9 21.6004 15.0264
23.1 22.5396 12.2089
6.3 28.1745 14.0872
10.5 28.1745 14.0872
8.4 26.2962 15.0264
10.5 25.357 13.1481
14.7 24.4179 15.9655
16.8 27.2353 12.2089
23.1 25.357 13.1481
1.36e-15 2.81745 19.7221
4.2 3.0e-15 18.783
8.4 2.81745 19.7221
12.6 3.0e-15 18.783
16.8 3.0e-15 18.783
4.2 6.57404 17.8438
8.4 6.57404 17.8438
14.7 4.69575 18.783
23.1 4.69575 18.783
14.7 11.2698 17.8438
1.81333e-15 13.1481 16.9047
2.04e-15 15.9655 17.8438
4.2 12.2089 19.7221
8.4 15.9655 17.8438
2.1 17.8438 16.9047
10.5 16.9047 19.7221
14.7 17.8438 16.9047
18.9 16.9047 19.7221
23.1 16.9047 19.7221
2.38e-15 22.5396 16.9047
6.3 23.4787 18.783
16.8 21.6004 19.7221
12.6 22.5396 16.9047
12.6 21.6004 19.7221
4.2 25.357 17.8438
10.5 26.2962 19.7221
21.0 25.357 17.8438
25.2 25.357 17.8438
2.1 3.7566 21.6004
10.5 0.939149 20.6613
23.1 3.7566 21.6004
10.5 6.57404 22.5396
12.6 5.63489 20.6613
21.0 4.69575 23.4787
1.81333e-15 8.45234 21.6004
8.4 11.2698 22.5396
14.7 10.3306 20.6613
23.1 9.39149 23.4787
23.1 10.3306 20.6613
2.26667e-15 14.0872 23.4787
8.4 15.0264 20.6613
16.8 14.0872 23.4787
14.7 15.9655 22.5396
21.0 15.0264 20.6613
4.2 17.8438 21.6004
14.7 18.783 23.4787
18.9 19.7221 20.6613
23.1 18.783 23.4787
6.3 22.5396 21.6004
8.4 23.4787 23.4787
16.8 20.6613 22.5396
2.1 25.357 22.5396
18.9 25.357 22.5396
25.2 27.2353 21.6004
8.4 0.939149 25.357
16.8 3.7566 26.2962
21.0 0.939149 25.357
10.5 5.63489 25.357
16.8 7.51319 24.4179
21.0 6.57404 27.2353
4.2 10.3306 25.357
12.6 10.3306 25.357
18.9 8.45234 26.2962
23.1 11.2698 27.2353
6.3 15.0264 25.357
10.5 15.0264 25.357
12.6 13.1481 26.2962
18.9 12.2089 24.4179
18.9 15.0264 25.357
2.49333e-15 16.9047 24.4179
4.2 16.9047 24.4179
6.3 17.8438 26.2962
2.94667e-15 22.5396 26.2962
12.6 22.5396 26.2962
2.1 24.4179 25.357
4.2 25.357 27.2353
16.8 25.357 27.2353
23.1 24.4179 25.357
0.0 0.0 0.0
4.2 1.8783 3.7566
6.3 3.7566 2.81745
16.8 0.0 0.0
18.9 0.939149 1.8783
21.0 0.0 0.0
2.1 7.51319 0.939149
4.2 5.63489 1.8783
6.3 4.69575 0.0
12.6 5.63489 1.8783
14.7 4.69575 0.0
4.2 11.2698 3.7566
4.2 9.39149 0.0
16.8 9.39149 0.0
21.0 11.2698 3.7566
7.93333e-16 12.2089 0.939149
2.1 13.1481 2.81745
2.1 14.0872 0.0
6.3 13.1481 2.81745
6.3 15.9655 3.7566
10.5 13.1481 2.81745
1.13333e-15 18.783 0.0
2.1 16.9047 0.939149
2.1 19.7221 1.8783
8.4 18.783 0.0
16.8 18.783 0.0
18.9 19.7221 1.8783
23.1 19.7221 1.8783
1.36e-15 21.6004 0.939149
6.3 23.4787 0.0
4.2 21.6004 0.939149
6.3 22.5396 2.81745
8.4 20.6613 3.7566
18.9 22.5396 2.81745
2.1 25.357 3.7566
12.6 24.4179 1.8783
14.7 25.357 3.7566
4.2 0.939149 6.57404
10.5 2.81745 5.63489
2.1 5.63489 6.57404
4.2 7.51319 5.63489
14.7 5.63489 6.57404
21.0 7.51319 5.63489
23.1 5.63489 6.57404
1.13333e-15 14.0872 4.69575
12.6 13.1481 7.51319
10.5 15.0264 6.57404
23.1 15.0264 6.57404
1.36e-15 16.9047 5.63489
4.2 16.9047 5.63489
10.5 17.8438 7.51319
8.4 16.9047 5.63489
16.8 19.7221 6.57404
18.9 17.8438 7.51319
2.1 21.6004 5.63489
10.5 21.6004 5.63489
12.6 22.5396 7.51319
10.5 24.4179 6.57404
16.8 26.2962 5.63489
18.9 27.2353 7.51319
25.2 26.2962 5.63489
7.93333e-16 2.81745 10.3306
4.2 2.81745 10.3306
14.7 1.8783 8.45234
9.06667e-16 6.57404 8.45234
4.2 6.57404 8.45234
8.4 6.57404 8.45234
10.5 7.51319 10.3306
21.0 5.63489 11.2698
23.1 7.51319 10.3306
1.13333e-15 9.39149 9.39149
10.5 10.3306 11.2698
12.6 9.39149 9.39149
1.58667e-15 15.0264 11.2698
4.2 15.0264 11.2698
21.0 12.2089 10.3306
18.9 14.0872 9.39149
21.0 15.0264 11.2698
2.1 19.7221 11.2698
12.6 18.783 9.39149
23.1 19.7221 11.2698
8.4 21.6004 10.3306
16.8 21.6004 10.3306
23.1 20.6613 8.45234
4.2 24.4179 11.2698
10.5 26.2962 10.3306
14.7 26.2962 10.3306
21.0 24.4179 11.2698
18.9 26.2962 10.3306
25.2 25.357 8.45234
9.06667e-16 1.8783 13.1481
6.3 2.81745 15.0264
16.8 0.939149 15.9655
10.5 6.57404 13.1481
12.6 7.51319 15.0264
18.9 6.57404 13.1481
23.1 5.63489 15.9655
2.1 9.39149 14.0872
4.2 11.2698 13.1481
8.4 10.3306 15.9655
23.1 9.39149 14.0872
1.7e-15 14.0872 14.0872
2.1 15.9655 13.1481
16.8 14.0872 14.0872
18.9 12.2089 15.0264
23.1 15.9655 13.1481
23.1 15.0264 15.9655
4.2 19.7221 15.9655
6.3 18.783 14.0872
12.6 17.8438 12.2089
21.0 19.7221 15.9655
6.3 22.5396 12.2089
14.7 21.6004 15.0264
16.8 20.6613 13.1481
23.1 21.6004 15.0264
4.2 26.2962 15.0264
14.7 25.357 13.1481
18.9 28.1745 14.0872
21.0 26.2962 15.0264
1.24667e-15 3.7566 16.9047
6.3 1.8783 17.8438
4.2 3.7566 16.9047
8.4 3.0e-15 18.783
18.9 1.8783 17.8438
6.3 7.51319 19.7221
14.7 7.51319 19.7221
18.9 7.51319 19.7221
1.7e-15 9.39149 18.783
2.1 8.45234 16.9047
4.2 9.39149 18.783
6.3 11.2698 17.8438
18.9 8.45234 16.9047
23.1 8.45234 16.9047
4.2 13.1481 16.9047
8.4 12.2089 19.7221
8.4 13.1481 16.9047
12.6 13.1481 16.9047
12.6 15.9655 17.8438
21.0 13.1481 16.9047
21.0 12.2089 19.7221
6.3 17.8438 16.9047
8.4 18.783 18.783
2.49333e-15 21.6004 19.7221
2.1 20.6613 17.8438
4.2 21.6004 19.7221
8.4 22.5396 16.9047
21.0 21.6004 19.7221
23.1 23.4787 18.783
18.9 27.2353 16.9047
23.1 27.2353 16.9047
4.2 1.8783 22.5396
6.3 3.7566 21.6004
16.8 1.8783 22.5396
14.7 3.7566 21.6004
18.9 0.939149 20.6613
23.1 0.939149 20.6613
2.1 6.57404 22.5396
16.8 5.63489 20.6613
18.9 6.57404 22.5396
25.2 4.69575 23.4787
2.1 10.3306 20.6613
4.2 11.2698 22.5396
6.3 9.39149 23.4787
10.5 10.3306 20.6613
12.6 8.45234 21.6004
16.8 11.2698 22.5396
2.1 13.1481 21.6004
10.5 15.9655 22.5396
16.8 15.0264 20.6613
2.1 19.7221 20.6613
2.60667e-15 20.6613 22.5396
12.6 23.4787 23.4787
21.0 23.4787 23.4787
23.1 22.5396 21.6004
4.2 27.2353 21.6004
8.4 24.4179 20.6613
16.8 27.2353 21.6004
14.7 28.1745 23.4787
14.7 25.357 22.5396
16.8 24.4179 20.6613
23.1 25.357 22.5396
2.1 1.8783 27.2353
4.2 0.939149 25.357
8.4 3.7566 26.2962
16.8 0.939149 25.357
14.7 1.8783 27.2353
12.6 3.7566 26.2962
18.9 1.8783 27.2353
23.1 1.8783 27.2353
23.1 2.81745 24.4179
1.92667e-15 7.51319 24.4179
6.3 5.63489 25.357
2.1 8.45234 26.2962
6.3 8.45234 26.2962
8.4 10.3306 25.357
16.8 10.3306 25.357
2.38e-15 13.1481 26.2962
4.2 13.1481 26.2962
8.4 13.1481 26.2962
12.6 15.9655 27.2353
21.0 15.9655 27.2353
8.4 16.9047 24.4179
8.4 19.7221 25.357
14.7 17.8438 26.2962
21.0 16.9047 24.4179
2.1 21.6004 24.4179
10.5 20.6613 27.2353
10.5 21.6004 24.4179
14.7 20.6613 27.2353
18.9 20.6613 27.2353
21.0 22.5396 26.2962
4.2 26.2962 24.4179
10.5 27.2353 26.2962
8.4 26.2962 24.4179
14.7 24.4179 25.357
21.0 25.357 27.2353
2.1 0.0 0.0
2.1 2.81745 0.939149
2.1 1.8783 3.7566
3.96667e-16 3.7566 2.81745
1.7e-16 0.939149 1.8783
6.3 0.0 0.0
4.2 3.7566 2.81745
6.3 2.81745 0.939149
4.2 0.939149 1.8783
6.3 1.8783 3.7566
10.5 0.0 0.0
8.4 3.7566 2.81745
10.5 2.81745 0.939149
8.4 0.939149 1.8783
10.5 1.8783 3.7566
14.7 0.0 0.0
12.6 3.7566 2.81745
14.7 2.81745 0.939149
16.8 3.7566 2.81745
12.6 0.939149 1.8783
14.7 1.8783 3.7566
16.8 0.939149 1.8783
18.9 0.0 0.0
18.9 2.81745 0.939149
21.0 3.7566 2.81745
18.9 1.8783 3.7566
21.0 0.939149 1.8783
23.1 0.0 0.0
23.1 2.81745 0.939149
23.1 1.8783 3.7566
2.83333e-16 4.69575 0.0
2.1 5.63489 1.8783
6.23333e-16 6.57404 3.7566
5.1e-16 7.51319 0.939149
4.2 4.69575 0.0
4.2 6.57404 3.7566
6.3 5.63489 1.8783
4.2 7.51319 0.939149
8.4 4.69575 0.0
8.4 6.57404 3.7566
10.5 5.63489 1.8783
8.4 7.51319 0.939149
12.6 4.69575 0.0
16.8 4.69575 0.0
12.6 6.57404 3.7566
14.7 5.63489 1.8783
16.8 6.57404 3.7566
12.6 7.51319 0.939149
16.8 7.51319 0.939149
21.0 4.69575 0.0
18.9 5.63489 1.8783
21.0 6.57404 3.7566
21.0 7.51319 0.939149
23.1 5.63489 1.8783
2.1 9.39149 0.0
2.1 8.45234 2.81745
2.1 11.2698 3.7566
7.36667e-16 10.3306 1.8783
6.3 9.39149 0.0
6.3 8.45234 2.81745
4.2 10.3306 1.8783
6.3 11.2698 3.7566
10.5 9.39149 0.0
10.5 8.45234 2.81745
8.4 10.3306 1.8783
10.5 11.2698 3.7566
14.7 9.39149 0.0
14.7 8.45234 2.81745
12.6 10.3306 1.8783
14.7 11.2698 3.7566
16.8 10.3306 1.8783
18.9 9.39149 0.0
18.9 8.45234 2.81745
18.9 11.2698 3.7566
21.0 10.3306 1.8783
23.1 9.39149 0.0
23.1 8.45234 2.81745
23.1 11.2698 3.7566
8.5e-16 14.0872 0.0
2.1 12.2089 0.939149
2.1 15.0264 1.8783
9.63333e-16 13.1481 2.81745
1.19e-15 15.9655 3.7566
4.2 14.0872 0.0
4.2 13.1481 2.81745
4.2 15.9655 3.7566
6.3 12.2089 0.939149
6.3 15.0264 1.8783
8.4 14.0872 0.0
12.6 14.0872 0.0
8.4 13.1481 2.81745
8.4 15.9655 3.7566
10.5 12.2089 0.939149
12.6 13.1481 2.81745
10.5 15.0264 1.8783
16.8 14.0872 0.0
12.6 15.9655 3.7566
14.7 12.2089 0.939149
16.8 13.1481 2.81745
14.7 15.0264 1.8783
16.8 15.9655 3.7566
21.0 14.0872 0.0
18.9 12.2089 0.939149
21.0 13.1481 2.81745
18.9 15.0264 1.8783
21.0 15.9655 3.7566
23.1 12.2089 0.939149
23.1 15.0264 1.8783
2.1 18.783 0.0
2.1 17.8438 2.81745
1.07667e-15 16.9047 0.939149
1.30333e-15 19.7221 1.8783
6.3 18.783 0.0
4.2 16.9047 0.939149
6.3 17.8438 2.81745
4.2 19.7221 1.8783
10.5 18.783 0.0
8.4 16.9047 0.939149
10.5 17.8438 2.81745
8.4 19.7221 1.8783
14.7 18.783 0.0
12.6 16.9047 0.939149
14.7 17.8438 2.81745
12.6 19.7221 1.8783
16.8 16.9047 0.939149
16.8 19.7221 1.8783
18.9 18.783 0.0
18.9 17.8438 2.81745
21.0 16.9047 0.939149
21.0 19.7221 1.8783
23.1 18.783 0.0
23.1 17.8438 2.81745
2.1 20.6613 3.7566
2.1 21.6004 0.939149
1.53e-15 22.5396 2.81745
4.2 23.4787 0.0
6.3 20.6613 3.7566
4.2 22.5396 2.81745
6.3 21.6004 0.939149
8.4 23.4787 0.0
10.5 20.6613 3.7566
8.4 22.5396 2.81745
10.5 21.6004 0.939149
12.6 23.4787 0.0
16.8 23.4787 0.0
14.7 20.6613 3.7566
12.6 22.5396 2.81745
14.7 21.6004 0.939149
16.8 22.5396 2.81745
21.0 23.4787 0.0
18.9 20.6613 3.7566
18.9 21.6004 0.939149
21.0 22.5396 2.81745
25.2 23.4787 0.0
23.1 20.6613 3.7566
23.1 21.6004 0.939149
2.1 24.4179 1.8783
2.1 27.2353 2.81745
4.2 25.357 3.7566
6.3 24.4179 1.8783
4.2 26.2962 0.939149
6.3 27.2353 2.81745
8.4 25.357 3.7566
10.5 24.4179 1.8783
8.4 26.2962 0.939149
10.5 27.2353 2.81745
12.6 25.357 3.7566
14.7 24.4179 1.8783
16.8 25.357 3.7566
12.6 26.2962 0.939149
14.7 27.2353 2.81745
16.8 26.2962 0.939149
18.9 24.4179 1.8783
21.0 25.357 3.7566
18.9 27.2353 2.81745
21.0 26.2962 0.939149
23.1 24.4179 1.8783
25.2 25.357 3.7566
23.1 27.2353 2.81745
25.2 26.2962 0.939149
2.1 3.7566 7.51319
2.1 0.939149 6.57404
5.1e-16 2.81745 5.63489
4.2 2.81745 5.63489
6.3 3.7566 7.51319
4.2 7.5e-16 4.69575
6.3 0.939149 6.57404
8.4 2.81745 5.63489
10.5 3.7566 7.51319
8.4 7.5e-16 4.69575
10.5 0.939149 6.57404
12.6 7.5e-16 4.69575
12.6 2.81745 5.63489
14.7 3.7566 7.51319
16.8 2.81745 5.63489
14.7 0.939149 6.57404
16.8 7.5e-16 4.69575
18.9 3.7566 7.51319
21.0 2.81745 5.63489
18.9 0.939149 6.57404
21.0 7.5e-16 4.69575
23.1 3.7566 7.51319
23.1 0.939149 6.57404
25.2 7.5e-16 4.69575
2.1 4.69575 4.69575
2.1 7.51319 5.63489
7.36667e-16 5.63489 6.57404
4.2 5.63489 6.57404
6.3 4.69575 4.69575
6.3 7.51319 5.63489
8.4 5.63489 6.57404
10.5 4.69575 4.69575
10.5 7.51319 5.63489
12.6 5.63489 6.57404
14.7 4.69575 4.69575
16.8 5.63489 6.57404
14.7 7.51319 5.63489
18.9 4.69575 4.69575
21.0 5.63489 6.57404
18.9 7.51319 5.63489
23.1 4.69575 4.69575
23.1 7.51319 5.63489
2.1 10.3306 6.57404
9.63333e-16 8.45234 7.51319
8.5e-16 9.39149 4.69575
4.2 8.45234 7.51319
4.2 9.39149 4.69575
6.3 10.3306 6.57404
8.4 8.45234 7.51319
8.4 9.39149 4.69575
10.5 10.3306 6.57404
12.6 8.45234 7.51319
16.8 8.45234 7.51319
12.6 9.39149 4.69575
14.7 10.3306 6.57404
16.8 9.39149 4.69575
21.0 8.45234 7.51319
18.9 10.3306 6.57404
21.0 9.39149 4.69575
23.1 10.3306 6.57404
2.1 13.1481 7.51319
2.1 14.0872 4.69575
1.07667e-15 12.2089 5.63489
1.30333e-15 15.0264 6.57404
4.2 12.2089 5.63489
6.3 13.1481 7.51319
4.2 15.0264 6.57404
6.3 14.0872 4.69575
8.4 12.2089 5.63489
10.5 13.1481 7.51319
8.4 15.0264 6.57404
12.6 12.2089 5.63489
10.5 14.0872 4.69575
14.7 13.1481 7.51319
12.6 15.0264 6.57404
16.8 12.2089 5.63489
14.7 14.0872 4.69575
16.8 15.0264 6.57404
18.9 13.1481 7.51319
21.0 12.2089 5.63489
18.9 14.0872 4.69575
21.0 15.0264 6.57404
23.1 13.1481 7.51319
23.1 14.0872 4.69575
2.1 16.9047 5.63489
2.1 19.7221 6.57404
1.53e-15 17.8438 7.51319
1.41667e-15 18.783 4.69575
4.2 17.8438 7.51319
6.3 16.9047 5.63489
4.2 18.783 4.69575
6.3 19.7221 6.57404
8.4 17.8438 7.51319
10.5 16.9047 5.63489
8.4 18.783 4.69575
10.5 19.7221 6.57404
12.6 17.8438 7.51319
14.7 16.9047 5.63489
16.8 17.8438 7.51319
12.6 18.783 4.69575
14.7 19.7221 6.57404
16.8 18.783 4.69575
18.9 16.9047 5.63489
21.0 17.8438 7.51319
18.9 19.7221 6.57404
21.0 18.783 4.69575
23.1 16.9047 5.63489
23.1 19.7221 6.57404
2.1 22.5396 7.51319
2.1 23.4787 4.69575
1.64333e-15 21.6004 5.63489
4.2 21.6004 5.63489
6.3 22.5396 7.51319
6.3 23.4787 4.69575
8.4 21.6004 5.63489
10.5 22.5396 7.51319
10.5 23.4787 4.69575
12.6 21.6004 5.63489
14.7 22.5396 7.51319
16.8 21.6004 5.63489
14.7 23.4787 4.69575
18.9 22.5396 7.51319
21.0 21.6004 5.63489
18.9 23.4787 4.69575
23.1 22.5396 7.51319
23.1 23.4787 4.69575
2.1 26.2962 5.63489
1.87e-15 24.4179 6.57404
4.2 24.4179 6.57404
4.2 27.2353 7.51319
6.3 26.2962 5.63489
8.4 24.4179 6.57404
8.4 27.2353 7.51319
10.5 26.2962 5.63489
12.6 24.4179 6.57404
12.6 27.2353 7.51319
16.8 24.4179 6.57404
14.7 26.2962 5.63489
16.8 27.2353 7.51319
21.0 24.4179 6.57404
18.9 26.2962 5.63489
21.0 27.2353 7.51319
23.1 26.2962 5.63489
25.2 27.2353 7.51319
2.1 2.81745 10.3306
2.1 1.5e-15 9.39149
7.36667e-16 0.939149 11.2698
6.23333e-16 1.8783 8.45234
6.3 2.81745 10.3306
4.2 0.939149 11.2698
6.3 1.5e-15 9.39149
4.2 1.8783 8.45234
10.5 2.81745 10.3306
8.4 0.939149 11.2698
10.5 1.5e-15 9.39149
8.4 1.8783 8.45234
14.7 2.81745 10.3306
12.6 0.939149 11.2698
14.7 1.5e-15 9.39149
16.8 0.939149 11.2698
12.6 1.8783 8.45234
16.8 1.8783 8.45234
18.9 2.81745 10.3306
18.9 1.5e-15 9.39149
21.0 0.939149 11.2698
21.0 1.8783 8.45234
23.1 2.81745 10.3306
23.1 1.5e-15 9.39149
2.1 5.63489 11.2698
2.1 6.57404 8.45234
8.5e-16 4.69575 9.39149
1.07667e-15 7.51319 10.3306
4.2 4.69575 9.39149
6.3 5.63489 11.2698
4.2 7.51319 10.3306
6.3 6.57404 8.45234
8.4 4.69575 9.39149
10.5 5.63489 11.2698
8.4 7.51319 10.3306
10.5 6.57404 8.45234
12.6 4.69575 9.39149
14.7 5.63489 11.2698
12.6 7.51319 10.3306
16.8 4.69575 9.39149
14.7 6.57404 8.45234
16.8 7.51319 10.3306
18.9 5.63489 11.2698
21.0 4.69575 9.39149
18.9 6.57404 8.45234
21.0 7.51319 10.3306
23.1 5.63489 11.2698
23.1 6.57404 8.45234
2.1 9.39149 9.39149
1.30333e-15 10.3306 11.2698
1.19e-15 11.2698 8.45234
4.2 10.3306 11.2698
6.3 9.39149 9.39149
4.2 11.2698 8.45234
8.4 10.3306 11.2698
10.5 9.39149 9.39149
8.4 11.2698 8.45234
12.6 10.3306 11.2698
14.7 9.39149 9.39149
16.8 10.3306 11.2698
12.6 11.2698 8.45234
16.8 11.2698 8.45234
18.9 9.39149 9.39149
21.0 10.3306 11.2698
21.0 11.2698 8.45234
23.1 9.39149 9.39149
2.1 12.2089 10.3306
2.1 15.0264 11.2698
2.1 15.9655 8.45234
1.41667e-15 14.0872 9.39149
6.3 12.2089 10.3306
4.2 14.0872 9.39149
6.3 15.0264 11.2698
6.3 15.9655 8.45234
10.5 12.2089 10.3306
8.4 14.0872 9.39149
10.5 15.0264 11.2698
12.6 14.0872 9.39149
10.5 15.9655 8.45234
14.7 12.2089 10.3306
14.7 15.0264 11.2698
16.8 14.0872 9.39149
14.7 15.9655 8.45234
18.9 12.2089 10.3306
18.9 15.0264 11.2698
21.0 14.0872 9.39149
18.9 15.9655 8.45234
23.1 12.2089 10.3306
23.1 15.0264 11.2698
23.1 15.9655 8.45234
2.1 18.783 9.39149
1.64333e-15 16.9047 10.3306
1.87e-15 19.7221 11.2698
4.2 16.9047 10.3306
4.2 19.7221 11.2698
6.3 18.783 9.39149
8.4 16.9047 10.3306
8.4 19.7221 11.2698
10.5 18.783 9.39149
12.6 16.9047 10.3306
12.6 19.7221 11.2698
16.8 16.9047 10.3306
14.7 18.783 9.39149
16.8 19.7221 11.2698
21.0 16.9047 10.3306
18.9 18.783 9.39149
21.0 19.7221 11.2698
23.1 18.783 9.39149
2.1 21.6004 10.3306
1.75667e-15 20.6613 8.45234
4.2 20.6613 8.45234
6.3 21.6004 10.3306
4.2 23.4787 9.39149
8.4 20.6613 8.45234
10.5 21.6004 10.3306
8.4 23.4787 9.39149
12.6 20.6613 8.45234
14.7 21.6004 10.3306
12.6 23.4787 9.39149
16.8 20.6613 8.45234
16.8 23.4787 9.39149
18.9 21.6004 10.3306
21.0 20.6613 8.45234
21.0 23.4787 9.39149
23.1 21.6004 10.3306
25.2 23.4787 9.39149
2.1 24.4179 11.2698
2.1 25.357 8.45234
6.3 24.4179 11.2698
4.2 26.2962 10.3306
6.3 25.357 8.45234
10.5 24.4179 11.2698
8.4 26.2962 10.3306
10.5 25.357 8.45234
14.7 24.4179 11.2698
12.6 26.2962 10.3306
14.7 25.357 8.45234
16.8 26.2962 10.3306
18.9 24.4179 11.2698
18.9 25.357 8.45234
21.0 26.2962 10.3306
23.1 24.4179 11.2698
23.1 25.357 8.45234
25.2 26.2962 10.3306
2.1 0.939149 15.9655
2.1 1.8783 13.1481
1.07667e-15 2.81745 15.0264
9.63333e-16 3.7566 12.2089
4.2 2.81745 15.0264
4.2 3.7566 12.2089
6.3 0.939149 15.9655
6.3 1.8783 13.1481
8.4 2.81745 15.0264
8.4 3.7566 12.2089
12.6 3.7566 12.2089
10.5 0.939149 15.9655
10.5 1.8783 13.1481
12.6 2.81745 15.0264
16.8 2.81745 15.0264
16.8 3.7566 12.2089
14.7 0.939149 15.9655
14.7 1.8783 13.1481
21.0 2.81745 15.0264
21.0 3.7566 12.2089
18.9 0.939149 15.9655
18.9 1.8783 13.1481
23.1 0.939149 15.9655
23.1 1.8783 13.1481
2.1 4.69575 14.0872
2.1 7.51319 15.0264
1.30333e-15 5.63489 15.9655
1.19e-15 6.57404 13.1481
4.2 5.63489 15.9655
6.3 4.69575 14.0872
4.2 6.57404 13.1481
6.3 7.51319 15.0264
8.4 5.63489 15.9655
10.5 4.69575 14.0872
8.4 6.57404 13.1481
10.5 7.51319 15.0264
12.6 6.57404 13.1481
12.6 5.63489 15.9655
14.7 4.69575 14.0872
16.8 5.63489 15.9655
14.7 7.51319 15.0264
16.8 6.57404 13.1481
18.9 4.69575 14.0872
21.0 5.63489 15.9655
18.9 7.51319 15.0264
21.0 6.57404 13.1481
23.1 4.69575 14.0872
23.1 7.51319 15.0264
2.1 10.3306 15.9655
2.1 8.45234 12.2089
2.1 11.2698 13.1481
1.41667e-15 9.39149 14.0872
4.2 9.39149 14.0872
6.3 10.3306 15.9655
6.3 8.45234 12.2089
6.3 11.2698 13.1481
8.4 9.39149 14.0872
10.5 10.3306 15.9655
10.5 8.45234 12.2089
12.6 9.39149 14.0872
10.5 11.2698 13.1481
14.7 10.3306 15.9655
14.7 8.45234 12.2089
16.8 9.39149 14.0872
14.7 11.2698 13.1481
18.9 10.3306 15.9655
18.9 8.45234 12.2089
21.0 9.39149 14.0872
18.9 11.2698 13.1481
23.1 10.3306 15.9655
23.1 8.45234 12.2089
23.1 11.2698 13.1481
2.1 14.0872 14.0872
1.64333e-15 12.2089 15.0264
1.87e-15 15.0264 15.9655
1.53e-15 13.1481 12.2089
1.75667e-15 15.9655 13.1481
4.2 12.2089 15.0264
4.2 15.0264 15.9655
4.2 13.1481 12.2089
6.3 14.0872 14.0872
4.2 15.9655 13.1481
8.4 12.2089 15.0264
8.4 15.0264 15.9655
12.6 12.2089 15.0264
8.4 13.1481 12.2089
10.5 14.0872 14.0872
8.4 15.9655 13.1481
12.6 13.1481 12.2089
12.6 15.9655 13.1481
12.6 15.0264 15.9655
16.8 12.2089 15.0264
14.7 14.0872 14.0872
16.8 15.0264 15.9655
16.8 13.1481 12.2089
16.8 15.9655 13.1481
21.0 12.2089 15.0264
18.9 14.0872 14.0872
21.0 15.0264 15.9655
21.0 13.1481 12.2089
21.0 15.9655 13.1481
23.1 14.0872 14.0872
2.1 16.9047 15.0264
2.1 19.7221 15.9655
2.1 17.8438 12.2089
1.98333e-15 18.783 14.0872
6.3 16.9047 15.0264
4.2 18.783 14.0872
6.3 19.7221 15.9655
6.3 17.8438 12.2089
10.5 16.9047 15.0264
8.4 18.783 14.0872
10.5 19.7221 15.9655
10.5 17.8438 12.2089
12.6 18.783 14.0872
14.7 16.9047 15.0264
14.7 19.7221 15.9655
14.7 17.8438 12.2089
16.8 18.783 14.0872
18.9 16.9047 15.0264
18.9 19.7221 15.9655
18.9 17.8438 12.2089
21.0 18.783 14.0872
23.1 16.9047 15.0264
23.1 19.7221 15.9655
23.1 17.8438 12.2089
2.1 20.6613 13.1481
2.1 23.4787 14.0872
2.21e-15 21.6004 15.0264
2.09667e-15 22.5396 12.2089
4.2 21.6004 15.0264
6.3 20.6613 13.1481
4.2 22.5396 12.2089
6.3 23.4787 14.0872
8.4 21.6004 15.0264
10.5 20.6613 13.1481
8.4 22.5396 12.2089
10.5 23.4787 14.0872
12.6 22.5396 12.2089
12.6 21.6004 15.0264
14.7 20.6613 13.1481
16.8 21.6004 15.0264
14.7 23.4787 14.0872
16.8 22.5396 12.2089
18.9 20.6613 13.1481
21.0 21.6004 15.0264
18.9 23.4787 14.0872
21.0 22.5396 12.2089
23.1 20.6613 13.1481
23.1 23.4787 14.0872
2.1 26.2962 15.0264
2.1 27.2353 12.2089
4.2 24.4179 15.9655
4.2 25.357 13.1481
6.3 26.2962 15.0264
4.2 28.1745 14.0872
6.3 27.2353 12.2089
8.4 24.4179 15.9655
8.4 25.357 13.1481
10.5 26.2962 15.0264
8.4 28.1745 14.0872
12.6 25.357 13.1481
10.5 27.2353 12.2089
12.6 28.1745 14.0872
12.6 24.4179 15.9655
16.8 24.4179 15.9655
14.7 26.2962 15.0264
16.8 25.357 13.1481
14.7 27.2353 12.2089
16.8 28.1745 14.0872
21.0 24.4179 15.9655
18.9 26.2962 15.0264
21.0 25.357 13.1481
18.9 27.2353 12.2089
21.0 28.1745 14.0872
25.2 24.4179 15.9655
23.1 26.2962 15.0264
25.2 25.357 13.1481
23.1 27.2353 12.2089
25.2 28.1745 14.0872
2.1 2.81745 19.7221
2.1 3.7566 16.9047
2.1 3.0e-15 18.783
1.19e-15 1.8783 17.8438
6.3 2.81745 19.7221
6.3 3.7566 16.9047
6.3 3.0e-15 18.783
4.2 1.8783 17.8438
10.5 2.81745 19.7221
10.5 3.7566 16.9047
10.5 3.0e-15 18.783
8.4 1.8783 17.8438
14.7 2.81745 19.7221
14.7 3.7566 16.9047
14.7 3.0e-15 18.783
12.6 1.8783 17.8438
16.8 1.8783 17.8438
18.9 2.81745 19.7221
18.9 3.7566 16.9047
18.9 3.0e-15 18.783
21.0 1.8783 17.8438
23.1 2.81745 19.7221
23.1 3.7566 16.9047
23.1 3.0e-15 18.783
2.1 6.57404 17.8438
1.41667e-15 4.69575 18.783
1.64333e-15 7.51319 19.7221
4.2 4.69575 18.783
4.2 7.51319 19.7221
6.3 6.57404 17.8438
8.4 4.69575 18.783
8.4 7.51319 19.7221
10.5 6.57404 17.8438
12.6 4.69575 18.783
12.6 7.51319 19.7221
16.8 4.69575 18.783
14.7 6.57404 17.8438
16.8 7.51319 19.7221
21.0 4.69575 18.783
18.9 6.57404 17.8438
21.0 7.51319 19.7221
23.1 6.57404 17.8438
2.1 9.39149 18.783
1.53e-15 8.45234 16.9047
1.75667e-15 11.2698 17.8438
4.2 8.45234 16.9047
6.3 9.39149 18.783
4.2 11.2698 17.8438
8.4 8.45234 16.9047
10.5 9.39149 18.783
8.4 11.2698 17.8438
12.6 8.45234 16.9047
14.7 9.39149 18.783
12.6 11.2698 17.8438
16.8 8.45234 16.9047
16.8 11.2698 17.8438
18.9 9.39149 18.783
21.0 8.45234 16.9047
21.0 11.2698 17.8438
23.1 9.39149 18.783
2.1 12.2089 19.7221
2.1 13.1481 16.9047
2.1 15.9655 17.8438
1.98333e-15 14.0872 18.783
6.3 12.2089 19.7221
4.2 14.0872 18.783
6.3 13.1481 16.9047
6.3 15.9655 17.8438
10.5 12.2089 19.7221
8.4 14.0872 18.783
10.5 13.1481 16.9047
12.6 14.0872 18.783
10.5 15.9655 17.8438
14.7 12.2089 19.7221
14.7 13.1481 16.9047
16.8 14.0872 18.783
14.7 15.9655 17.8438
18.9 12.2089 19.7221
18.9 13.1481 16.9047
21.0 14.0872 18.783
18.9 15.9655 17.8438
23.1 12.2089 19.7221
23.1 13.1481 16.9047
23.1 15.9655 17.8438
2.1 18.783 18.783
2.21e-15 16.9047 19.7221
2.09667e-15 17.8438 16.9047
4.2 16.9047 19.7221
4.2 17.8438 16.9047
6.3 18.783 18.783
8.4 16.9047 19.7221
8.4 17.8438 16.9047
10.5 18.783 18.783
12.6 16.9047 19.7221
16.8 16.9047 19.7221
12.6 17.8438 16.9047
14.7 18.783 18.783
16.8 17.8438 16.9047
21.0 16.9047 19.7221
18.9 18.783 18.783
21.0 17.8438 16.9047
23.1 18.783 18.783
2.1 21.6004 19.7221
2.1 22.5396 16.9047
2.32333e-15 20.6613 17.8438
4.2 20.6613 17.8438
6.3 21.6004 19.7221
4.2 23.4787 18.783
6.3 22.5396 16.9047
8.4 20.6613 17.8438
10.5 21.6004 19.7221
8.4 23.4787 18.783
10.5 22.5396 16.9047
12.6 20.6613 17.8438
14.7 21.6004 19.7221
12.6 23.4787 18.783
16.8 20.6613 17.8438
14.7 22.5396 16.9047
16.8 23.4787 18.783
18.9 21.6004 19.7221
21.0 20.6613 17.8438
18.9 22.5396 16.9047
21.0 23.4787 18.783
23.1 21.6004 19.7221
23.1 22.5396 16.9047
25.2 23.4787 18.783
2.1 25.357 17.8438
4.2 26.2962 19.7221
6.3 25.357 17.8438
4.2 27.2353 16.9047
8.4 26.2962 19.7221
10.5 25.357 17.8438
8.4 27.2353 16.9047
12.6 26.2962 19.7221
14.7 25.357 17.8438
16.8 26.2962 19.7221
12.6 27.2353 16.9047
16.8 27.2353 16.9047
18.9 25.357 17.8438
21.0 26.2962 19.7221
21.0 27.2353 16.9047
23.1 25.357 17.8438
25.2 26.2962 19.7221
25.2 27.2353 16.9047
2.1 1.8783 22.5396
1.53e-15 3.7566 21.6004
1.30333e-15 0.939149 20.6613
4.2 3.7566 21.6004
4.2 0.939149 20.6613
6.3 1.8783 22.5396
8.4 3.7566 21.6004
8.4 0.939149 20.6613
10.5 1.8783 22.5396
12.6 3.7566 21.6004
16.8 3.7566 21.6004
12.6 0.939149 20.6613
14.7 1.8783 22.5396
16.8 0.939149 20.6613
21.0 3.7566 21.6004
18.9 1.8783 22.5396
21.0 0.939149 20.6613
23.1 1.8783 22.5396
2.1 4.69575 23.4787
2.1 5.63489 20.6613
1.75667e-15 6.57404 22.5396
6.3 4.69575 23.4787
4.2 6.57404 22.5396
6.3 5.63489 20.6613
10.5 4.69575 23.4787
8.4 6.57404 22.5396
10.5 5.63489 20.6613
14.7 4.69575 23.4787
12.6 6.57404 22.5396
14.7 5.63489 20.6613
16.8 6.57404 22.5396
18.9 4.69575 23.4787
18.9 5.63489 20.6613
21.0 6.57404 22.5396
23.1 4.69575 23.4787
23.1 5.63489 20.6613
2.1 8.45234 21.6004
2.1 11.2698 22.5396
1.87e-15 10.3306 20.6613
4.2 9.39149 23.4787
6.3 8.45234 21.6004
4.2 10.3306 20.6613
6.3 11.2698 22.5396
8.4 9.39149 23.4787
10.5 8.45234 21.6004
8.4 10.3306 20.6613
10.5 11.2698 22.5396
12.6 9.39149 23.4787
14.7 8.45234 21.6004
16.8 9.39149 23.4787
12.6 10.3306 20.6613
14.7 11.2698 22.5396
16.8 10.3306 20.6613
18.9 8.45234 21.6004
21.0 9.39149 23.4787
18.9 11.2698 22.5396
21.0 10.3306 20.6613
23.1 8.45234 21.6004
25.2 9.39149 23.4787
23.1 11.2698 22.5396
2.1 14.0872 23.4787
2.1 15.0264 20.6613
2.09667e-15 13.1481 21.6004
2.32333e-15 15.9655 22.5396
4.2 13.1481 21.6004
6.3 14.0872 23.4787
4.2 15.9655 22.5396
6.3 15.0264 20.6613
8.4 13.1481 21.6004
10.5 14.0872 23.4787
8.4 15.9655 22.5396
12.6 13.1481 21.6004
10.5 15.0264 20.6613
14.7 14.0872 23.4787
12.6 15.9655 22.5396
16.8 13.1481 21.6004
14.7 15.0264 20.6613
16.8 15.9655 22.5396
18.9 14.0872 23.4787
21.0 13.1481 21.6004
18.9 15.0264 20.6613
21.0 15.9655 22.5396
23.1 14.0872 23.4787
23.1 15.0264 20.6613
2.1 17.8438 21.6004
2.43667e-15 19.7221 20.6613
4.2 18.783 23.4787
6.3 17.8438 21.6004
4.2 19.7221 20.6613
8.4 18.783 23.4787
10.5 17.8438 21.6004
8.4 19.7221 20.6613
12.6 18.783 23.4787
14.7 17.8438 21.6004
16.8 18.783 23.4787
12.6 19.7221 20.6613
16.8 19.7221 20.6613
18.9 17.8438 21.6004
21.0 18.783 23.4787
21.0 19.7221 20.6613
23.1 17.8438 21.6004
25.2 18.783 23.4787
2.1 20.6613 22.5396
2.1 23.4787 23.4787
2.66333e-15 22.5396 21.6004
6.3 20.6613 22.5396
4.2 22.5396 21.6004
6.3 23.4787 23.4787
10.5 20.6613 22.5396
8.4 22.5396 21.6004
10.5 23.4787 23.4787
14.7 20.6613 22.5396
12.6 22.5396 21.6004
14.7 23.4787 23.4787
16.8 22.5396 21.6004
18.9 20.6613 22.5396
18.9 23.4787 23.4787
21.0 22.5396 21.6004
23.1 20.6613 22.5396
23.1 23.4787 23.4787
2.1 24.4179 20.6613
2.1 27.2353 21.6004
4.2 25.357 22.5396
4.2 28.1745 23.4787
6.3 24.4179 20.6613
6.3 27.2353 21.6004
8.4 25.357 22.5396
8.4 28.1745 23.4787
10.5 24.4179 20.6613
10.5 27.2353 21.6004
12.6 25.357 22.5396
12.6 28.1745 23.4787
14.7 24.4179 20.6613
16.8 25.357 22.5396
14.7 27.2353 21.6004
16.8 28.1745 23.4787
18.9 24.4179 20.6613
21.0 25.357 22.5396
18.9 27.2353 21.6004
21.0 28.1745 23.4787
23.1 24.4179 20.6613
25.2 25.357 22.5396
23.1 27.2353 21.6004
25.2 28.1745 23.4787
2.1 3.7566 26.2962
2.1 0.939149 25.357
4.2 2.81745 24.4179
6.3 3.7566 26.2962
4.2 1.8783 27.2353
6.3 0.939149 25.357
8.4 2.81745 24.4179
10.5 3.7566 26.2962
8.4 1.8783 27.2353
10.5 0.939149 25.357
12.6 2.81745 24.4179
14.7 3.7566 26.2962
16.8 2.81745 24.4179
12.6 1.8783 27.2353
14.7 0.939149 25.357
16.8 1.8783 27.2353
18.9 3.7566 26.2962
21.0 2.81745 24.4179
18.9 0.939149 25.357
21.0 1.8783 27.2353
23.1 3.7566 26.2962
25.2 2.81745 24.4179
23.1 0.939149 25.357
25.2 1.8783 27.2353
2.1 6.57404 27.2353
2.1 7.51319 24.4179
4.2 5.63489 25.357
6.3 6.57404 27.2353
6.3 7.51319 24.4179
8.4 5.63489 25.357
10.5 6.57404 27.2353
10.5 7.51319 24.4179
12.6 5.63489 25.357
14.7 6.57404 27.2353
16.8 5.63489 25.357
14.7 7.51319 24.4179
18.9 6.57404 27.2353
21.0 5.63489 25.357
18.9 7.51319 24.4179
23.1 6.57404 27.2353
25.2 5.63489 25.357
23.1 7.51319 24.4179
2.1 10.3306 25.357
4.2 8.45234 26.2962
4.2 11.2698 27.2353
6.3 10.3306 25.357
8.4 8.45234 26.2962
8.4 11.2698 27.2353
10.5 10.3306 25.357
12.6 8.45234 26.2962
12.6 11.2698 27.2353
16.8 8.45234 26.2962
14.7 10.3306 25.357
16.8 11.2698 27.2353
21.0 8.45234 26.2962
18.9 10.3306 25.357
21.0 11.2698 27.2353
25.2 8.45234 26.2962
23.1 10.3306 25.357
25.2 11.2698 27.2353
2.1 13.1481 26.2962
2.1 15.9655 27.2353
2.21e-15 12.2089 24.4179
4.2 12.2089 24.4179
6.3 13.1481 26.2962
4.2 15.0264 25.357
6.3 15.9655 27.2353
8.4 12.2089 24.4179
10.5 13.1481 26.2962
8.4 15.0264 25.357
10.5 15.9655 27.2353
12.6 12.2089 24.4179
14.7 13.1481 26.2962
12.6 15.0264 25.357
14.7 15.9655 27.2353
16.8 12.2089 24.4179
16.8 15.0264 25.357
18.9 13.1481 26.2962
18.9 15.9655 27.2353
21.0 12.2089 24.4179
21.0 15.0264 25.357
23.1 13.1481 26.2962
23.1 15.9655 27.2353
25.2 15.0264 25.357
2.1 16.9047 24.4179
2.1 19.7221 25.357
4.2 17.8438 26.2962
6.3 16.9047 24.4179
6.3 19.7221 25.357
8.4 17.8438 26.2962
10.5 16.9047 24.4179
10.5 19.7221 25.357
12.6 17.8438 26.2962
14.7 16.9047 24.4179
16.8 17.8438 26.2962
14.7 19.7221 25.357
18.9 16.9047 24.4179
21.0 17.8438 26.2962
18.9 19.7221 25.357
23.1 16.9047 24.4179
25.2 17.8438 26.2962
23.1 19.7221 25.357
2.1 22.5396 26.2962
2.77667e-15 21.6004 24.4179
4.2 20.6613 27.2353
4.2 21.6004 24.4179
6.3 22.5396 26.2962
8.4 20.6613 27.2353
8.4 21.6004 24.4179
10.5 22.5396 26.2962
12.6 20.6613 27.2353
16.8 20.6613 27.2353
12.6 21.6004 24.4179
14.7 22.5396 26.2962
16.8 21.6004 24.4179
21.0 20.6613 27.2353
18.9 22.5396 26.2962
21.0 21.6004 24.4179
25.2 20.6613 27.2353
23.1 22.5396 26.2962
2.1 25.357 27.2353
2.1 26.2962 24.4179
4.2 24.4179 25.357
6.3 25.357 27.2353
4.2 27.2353 26.2962
6.3 26.2962 24.4179
8.4 24.4179 25.357
10.5 25.357 27.2353
8.4 27.2353 26.2962
10.5 26.2962 24.4179
12.6 24.4179 25.357
14.7 25.357 27.2353
12.6 27.2353 26.2962
16.8 24.4179 25.357
14.7 26.2962 24.4179
16.8 27.2353 26.2962
18.9 25.357 27.2353
21.0 24.4179 25.357
18.9 26.2962 24.4179
21.0 27.2353 26.2962
23.1 25.357 27.2353
25.2 24.4179 25.357
23.1 26.2962 24.4179
25.2 27.2353 26.2962
